System
1.0
6.361483405682314 0.0 -4.406017500253712
0.0 7.695735859106339 0.0
-0.0260427733776649 0.0 6.597189321482209
Sr H N 
4 16 8 
direct
0.2503072202368191 0.37851043017125047 0.2527163702691724 Sr
0.7496927797631808 0.8785104301712497 0.24728362973082757 Sr
0.7496927797631807 0.6214895698287501 0.7472836297308274 Sr
0.25030722023681906 0.1214895698287498 0.7527163702691724 Sr
0.5448441458192699 0.4024663625991546 0.9018415807949297 H
0.4551558541807299 0.9024663625991547 0.5981584192050702 H
0.45515585418072985 0.5975336374008451 0.09815841920507053 H
0.5448441458192699 0.0975336374008457 0.40184158079492965 H
0.6267210357335667 0.2628152721358532 0.7897797227054769 H
0.37327896426643387 0.7628152721358535 0.7102202772945231 H
0.6267210357335669 0.23718472786414646 0.2897797227054779 H
0.37327896426643387 0.7371847278641462 0.2102202772945218 H
0.10648690226911048 0.8210834973871256 0.8744224961705794 H
0.10648690226911048 0.6789165026128742 0.3744224961705788 H
0.8935130977308895 0.17891650261287437 0.12557750382942118 H
0.06608967784725199 0.46970956190122837 0.6821520833473343 H
0.9339103221527468 0.9697095619012296 0.8178479166526655 H
0.9339103221527468 0.5302904380987704 0.31784791665266554 H
0.06608967784725199 0.0302904380987711 0.1821520833473344 H
0.8935130977308895 0.32108349738712577 0.6255775038294205 H
0.4894514954091215 0.8548444084086333 0.7638819900995235 N
0.023562184843847696 0.11395805594501779 0.2691407137714263 N
0.9764378151561524 0.6139580559450183 0.23085928622857338 N
0.9764378151561524 0.8860419440549817 0.7308592862285733 N
0.023562184843847696 0.386041944054982 0.7691407137714267 N
0.5105485045908775 0.1451555915913662 0.2361180099004758 N
0.48945149540912153 0.6451555915913665 0.26388199009952373 N
0.5105485045908775 0.3548444084086335 0.7361180099004765 N
