System
1.0
3.828586124743148 -6.631306829856588 0.0
3.8285862882353485 6.631306735464334 -0.0
-0.0 0.0 5.251895450830349
Sr Mn N 
6 2 6 
direct
0.6395845965870427 0.7276257916972945 0.7500000000000001 Sr
0.9119588048900626 0.6395845965877518 0.25 Sr
0.7276257916969802 0.08804119510954239 0.25 Sr
0.27237420830301967 0.9119588048904574 0.7500000000000001 Sr
0.08804119510993737 0.3604154034122479 0.7500000000000001 Sr
0.3604154034129569 0.2723742083027055 0.25 Sr
0.33333300000000315 0.6666669999999968 0.25 Mn
0.6666669999999968 0.33333300000000315 0.7500000000000001 Mn
0.8818492737091128 0.5706210397348765 0.7500000000000001 N
0.3112292339736072 0.8818492737090989 0.25 N
0.57062103973551 0.6887707660257723 0.25 N
0.42937896026449 0.31122923397422714 0.7500000000000001 N
0.6887707660263929 0.11815072629090076 0.7500000000000001 N
0.11815072629088749 0.4293789602651237 0.25 N
