System
1.0
4.024092821858008 -0.0010116122360673 -0.0039344931001855
-2.0106497172061433 5.332324899439147 0.0378134567292054
-2.006529724178465 -1.6650185351909719 5.958566266520346
Mg Cu N 
4 2 4 
direct
0.8542745958463854 0.1825227544196766 0.5248572037308021 Mg
0.14622602376159063 0.8192740603082527 0.4720335004103136 Mg
0.6907101235764367 0.6469023856217009 0.7333907356585678 Mg
0.30981070525916504 0.35492701520730874 0.2635128797786411 Mg
0.5323900011327283 0.17428518627998552 0.8892289869023684 Cu
0.46814943143268883 0.8275169786458471 0.10766217208787432 Cu
0.4198510097847885 0.24278726759408611 0.5957487401212758 N
0.5806688174389923 0.7590323985452784 0.4011595564921722 N
0.7169718214407474 0.23602721719574232 0.1967217587593581 N
0.2835424703264684 0.7657847361821191 0.8001774660586201 N
