System
1.0
5.109490532855482 0.0039505886103807 -1.0663575601773554
-1.3126626586084704 4.937997435686084 -1.0663575614102356
0.0030354662044288 0.0039505877013817 5.219577955761665
Fe P O 
3 1 7 
direct
0.5442957995810158 0.54429579958165 0.15192111173987363 Fe
0.15192111174099543 0.5442957995830078 0.5442947995831496 Fe
0.5442957995812068 0.1519211117400673 0.5442947995819831 Fe
0.004168569632733501 0.0041695696349634 0.0041695696353736 P
0.14669030114793796 0.833197082113747 0.8331980821135011 O
0.8331980821159694 0.8331970821147431 0.14669030114806605 O
0.8331980821158362 0.14669030114802434 0.8331980821143647 O
0.770207671679633 0.3897387454379432 0.38973874543798687 O
0.2305440915268799 0.2305440915256146 0.2305420915253799 O
0.3897407454389951 0.3897387454392364 0.7702076716812369 O
0.38973974543879075 0.7702076716809871 0.38973974543907786 O
