System
1.0
2.4794693771202696 -0.0 0.0
-0.0 2.4794693771202696 0.0
-0.0 -0.0 2.4794693771202696
Fe N 
1 1 
direct
0.0 0.0 0.0 Fe
0.5 0.5 0.5 N
