System
1.0
4.759771030372069 0.008280647834787 -0.5724896894227669
-0.4386027967886855 5.615150717818471 -1.0347237889166592
0.0444103805612378 0.0347871347269636 10.319197544706245
Sn C S N 
2 4 4 4 
direct
0.8176287479831733 0.8039145719371128 0.2559954926283215 Sn
0.1823712520168261 0.1960854280628878 0.7440045073716789 Sn
0.7952169244437802 0.2513341765811987 0.002674267714785102 C
0.2047830755562202 0.7486658234188015 0.9973257322852155 C
0.8092817848279217 0.6017603314377337 0.6267361634983343 C
0.19071821517207768 0.39823966856226634 0.3732638365016664 C
0.6159985543826099 0.28249449775069474 0.1273334186480914 S
0.7362553533460194 0.8593929444931003 0.5932820826544851 S
0.2637446466539801 0.14060705550689973 0.4067179173455147 S
0.3840014456173907 0.7175055022493058 0.8726665813519087 S
0.14769036330508428 0.5887788413809385 0.3492985042446447 N
0.9167999986187427 0.22515476905611162 0.9082879975079121 N
0.0832000013812575 0.7748452309438879 0.09171200249208773 N
0.8523096366949149 0.41122115861906205 0.6507014957553547 N
