System
1.0
-1.6394121108851119 -5.201202635184894 -0.4658148712102391
-1.6394121108851119 5.201202635184894 -0.4658148712102391
-1.7949111678382799 0.0 -4.39624699533641
Li H N 
2 4 2 
direct
0.15327711767118699 0.18637551529554627 0.32360355656434703 Li
0.18637551529554613 0.15327711767118685 0.8236035565643484 Li
0.7568797791268288 0.4293801166648187 0.196679068499279 H
0.42938011666481884 0.7568797791268289 0.6966790684992773 H
0.5822457541969986 0.9100993947219568 0.9503998849088572 H
0.9100993947219566 0.5822457541969984 0.4503998849088569 H
0.5697774677832178 0.7699068545394471 0.8235964900275199 N
0.7699068545394467 0.5697774677832175 0.3235964900275194 N
