System
1.0
6.344802424059128 1.16871171633e-05 -2.796049281197714
-1.2321805530249363 6.224010993295285 -2.7960386030436486
-0.0181658637951225 -0.0221295193930626 8.555623412132379
K B C N 
2 2 8 8 
direct
0.625 0.875 0.24999999999999997 K
0.37500000000000006 0.125 0.75 K
0.8750000000000001 0.625 0.75 B
0.125 0.37499999999999994 0.25 B
0.699921514272759 0.40833349663131213 0.6222105466570763 C
0.21387705002908716 0.1999215142716757 0.1222105466557553 C
0.0777109676134304 0.2861229499732306 0.3777894533424485 C
0.9222890323865695 0.7138770500267694 0.6222105466575517 C
0.09166650336975829 0.5777109676135935 0.8777894533411268 C
0.7861229499709129 0.8000784857283244 0.8777894533442445 C
0.3000784857272408 0.5916665033686874 0.3777894533429231 C
0.9083334966302423 0.42228903238640564 0.1222105466588734 C
0.7499508322085922 0.46141434556103006 0.032954677823260475 N
0.7169961543841938 0.9284596677415065 0.9670453221902146 N
0.9614143455293307 0.7830038455995836 0.5329546778126177 N
0.28300384561580655 0.0715403322584932 0.0329546778097856 N
0.2500491677914069 0.5385856544389703 0.9670453221767394 N
0.5715403322950686 0.24995083221993944 0.5329546778204293 N
0.038585654470669195 0.2169961544004164 0.4670453221873831 N
0.4284596677049314 0.7500491677800605 0.46704532217957095 N
