System
1.0
6.394452697492596 -0.0043683371554506 -0.4519403256360282
-6.879124316830666 6.380427095021397 1.1430047462e-06
-0.0053152376659516 -0.0057306791548179 5.3553070003757295
Zn Ga N 
6 4 8 
direct
0.22847040851816416 0.9624466632429247 0.09953769992082388 Zn
0.7715295914814299 0.7339762547242313 0.40046230007787237 Zn
0.7715295914818358 0.037553336757075326 0.9004623000791763 Zn
0.22847040851857003 0.2660237452757682 0.5995376999221276 Zn
-1.0896781432450034e-13 0.6571640587265783 0.7500000000003261 Zn
1.090821744621297e-13 0.34283594127342176 0.24999999999967404 Zn
0.5737752216793822 0.3989592745198431 0.13428248458631503 Ga
0.42622477832126215 0.8251840528409847 0.3657175154135527 Ga
0.5737752216787373 0.17481594715901522 0.6342824845864475 Ga
0.4262247783206181 0.6010407254801565 0.8657175154136848 Ga
0.37724728443977795 0.769656078701619 0.9947920108704268 N
0.2010914315340335 0.8889865644369921 0.48728050274937545 N
0.7989085684665844 0.6878951329030201 0.012719497250786187 N
0.7989085684659663 0.11101343556300801 0.5127194972506244 N
0.20109143153341538 0.3121048670969795 0.9872805027492139 N
0.6227527155602223 0.23034392129838085 0.005207989129573593 N
0.3772472844408197 0.6075912057386829 0.49479201087086583 N
0.6227527155591804 0.3924087942613169 0.5052079891291344 N
