System
1.0
6.060915167302771 -1.40496e-11 -2.1428571069722797
-3.0304575826558455 5.248906505641387 -2.14285710697228
-8.1115e-12 -1.40496e-11 6.428571322319011
Sr Mn O 
1 7 12 
direct
0.0 0.0 0.0 Sr
0.5 0.0 0.5 Mn
1.4648402002305738e-17 0.5 0.5000000000000001 Mn
0.5 0.5 4.492378585444836e-17 Mn
0.0 0.0 0.5 Mn
0.5 0.0 -5.293682688404733e-18 Mn
1.4648402002305738e-17 0.5 2.246189292722418e-17 Mn
0.5 0.5 0.5 Mn
0.31123268063229437 0.8200533879367751 0.13128606856907574 O
0.6887673193677057 0.17994661206322501 0.8687139314309245 O
0.491179292695519 0.3112326806323004 0.17994661206321844 O
0.5088207073044811 0.6887673193676997 0.8200533879367817 O
0.1312860685690756 0.3112326806322943 0.820053387936775 O
0.820053387936775 0.1312860685690756 0.3112326806322943 O
0.1799466120632184 0.491179292695519 0.3112326806323005 O
0.8200533879367817 0.5088207073044811 0.6887673193676997 O
0.6887673193676999 0.8200533879367818 0.5088207073044813 O
0.179946612063225 0.8687139314309245 0.6887673193677059 O
0.8687139314309246 0.6887673193677059 0.17994661206322501 O
0.31123268063230036 0.17994661206321844 0.491179292695519 O
