System
1.0
6.015108868283365 -0.0 4e-16
8e-16 4.936217227690427 0.2190196324362538
-0.0 0.0160400603829803 9.909418734697155
Cu Sn P O 
3 1 4 16 
direct
0.5 0.8709006377642676 0.3062391782109222 Cu
0.5 0.6536639133414919 0.8097848176276959 Cu
0.0 0.3693019623001925 0.1993353446540259 Cu
0.0 0.06248697841841491 0.7070928479826238 Sn
0.0 0.8883840708328669 0.39349713872497966 P
0.0 0.5901536630238374 0.9037234416941736 P
0.5 0.42202838194370934 0.10917876475871238 P
0.5 0.10432124516632953 0.5929548934965206 P
0.7065102016146116 0.25090778399566604 0.6536970461188871 O
0.0 0.19956671022175562 0.373507338504639 O
0.0 0.28928320603839575 0.874283208031845 O
0.2993961343516215 0.2642618572471175 0.1720571635098894 O
0.7006038656483785 0.2642618572471175 0.1720571635098894 O
0.5 0.3991309145834655 0.9533617663672971 O
0.0 0.629105829119677 0.0544940755555516 O
0.5 0.7999630503199355 0.6334381525630968 O
0.1927540959981892 0.7570622051947057 0.8286088232607675 O
0.5 0.7273456770493675 0.1343025724313638 O
0.29348979838538924 0.25090778399566604 0.6536970461188871 O
0.79854786360642 0.7492740159266956 0.3290271409381045 O
0.2014521363935796 0.7492740159266956 0.3290271409381045 O
0.0 0.8203575093424421 0.5495613842111512 O
0.8072459040018112 0.7570622051947057 0.8286088232607675 O
0.5 0.13099452580548632 0.43846372753008594 O
