System
1.0
6.452450163343633 0.0226076817002865 -3.6088539730254228
-1.6454079410710365 5.56804300693219 -4.576896437187401
-0.0083916403764573 -0.0226076817015327 7.39309608279385
Fe H O F 
4 8 4 10 
direct
0.5 0.5 -1.3354158198666396e-17 Fe
0.0 0.0 0.0 Fe
0.4999999999999999 3.4295003495163274e-19 -3.822177968157915e-17 Fe
-5.768776667793057e-20 -5.510848079086144e-20 0.49999999999999994 Fe
0.5202317697670222 0.794989832176208 0.4877180635018554 H
0.692728231325655 0.20501016782379192 0.7252419375908216 H
0.9797682302329773 0.46748629373483297 0.27475806240917766 H
0.8072717686743448 0.5325137062651675 0.5122819364981447 H
0.19272823132565478 0.46748629373483236 0.4877180635018555 H
0.020231769767022924 0.5325137062651671 0.7252419375908219 H
0.30727176867434497 0.794989832176208 0.2747580624091778 H
0.47976823023297716 0.20501016782379264 0.5122819364981447 H
0.44112763140916833 0.7444694049959073 0.30334277358673645 O
0.9411276314091686 0.6377848578224398 0.6966572264132647 O
0.5588723685908313 0.2555305950040923 0.696657226413264 O
0.05887236859083098 0.3622151421775603 0.3033427735867359 O
0.178391994365476 0.34118183568131616 0.7599996828589679 F
0.5811821528223542 0.34118183568131577 0.16278984131583873 F
0.8216080056345243 0.6588181643186841 0.24000031714103218 F
0.6783919943654774 0.9183923115065087 0.8372101586841605 F
0.9188178471776444 0.08160768849349201 0.7599996828589689 F
0.7499999999999994 0.09571185869082642 0.34571185869082577 F
0.25000000000000067 0.9042881413091737 0.6542881413091737 F
0.08118215282235551 0.9183923115065085 0.2400003171410317 F
0.32160800563452235 0.0816076884934917 0.1627898413158395 F
0.41881784717764586 0.6588181643186843 0.8372101586841613 F
