System
1.0
4.839829149840688 -0.0287824380650525 4.409628360484639
1.9300159495281775 4.438446789979046 4.409628367159969
-0.0441873825392487 -0.0287824411243093 6.547275970010321
K Zr B O 
2 1 2 6 
direct
0.7897683725681099 0.7897683725681724 0.7897683725679713 K
0.21023162743188983 0.2102316274318272 0.21023162743202867 K
0.0 0.0 0.0 Zr
0.5951066412657302 0.5951066412657832 0.5951066412656123 B
0.40489335873427 0.4048933587342169 0.4048933587343878 B
0.7447392645801273 0.2950333202681032 0.7447392645800179 O
0.25526073542148137 0.25526073542140854 0.7049666797323201 O
0.704966679732012 0.25526073542031613 0.25526073542049826 O
0.2552607354198727 0.7049666797318968 0.2552607354199818 O
0.7447392645785186 0.7447392645785914 0.29503332026768014 O
0.29503332026798795 0.7447392645796838 0.7447392645795017 O
