System
1.0
1.7444280376903631 1.0071459970802619 5.2353312580240345
-1.7444280376903631 1.0071459970802619 5.2353312580240345
0.0 -2.0142919942743194 5.235331258025815
Y C N 
1 1 2 
direct
0.0 0.0 0.0 Y
0.5000002470509557 0.5000002470509557 0.5000002470509556 C
0.42100304781377135 0.42100304781377135 0.4210030478137901 N
0.5789974462811976 0.5789974462811976 0.578997446281179 N
