System
1.0
6.775197166402211 0.0 0.0
0.0 6.617117052267474 -1.9101753750280426
0.0 -0.0079018594234059 9.68505097724679
Sr Si N 
2 14 20 
direct
0.9476192661124626 0.05036137058643742 0.33639191853894646 Sr
0.052380733887537494 0.050361370586437415 0.8363919185389462 Sr
0.9732444667593277 0.6473901961086072 0.9839008342022953 Si
0.376072272640382 0.14980315058291044 0.19006809556545604 Si
0.9738813010832975 0.46010210874765073 0.6718941750490774 Si
0.6296368477285585 0.5154331088319155 0.3121538606318025 Si
0.36484889165891365 0.33368273636551427 0.5064649062614552 Si
0.6193783823814716 0.70347868155843 0.616071012011693 Si
0.605289478742744 0.8910695907100241 0.9261585744830604 Si
0.3703631522714411 0.5154331088319155 0.8121538606318026 Si
0.623927727359618 0.14980315058291044 0.6900680955654562 Si
0.0267555332406718 0.6473901961086072 0.48390083420229524 Si
0.38062161761852786 0.7034786815584299 0.116071012011693 Si
0.3947105212572563 0.8910695907100241 0.42615857448306027 Si
0.0261186989167024 0.4601021087476508 0.17189417504907742 Si
0.6351511083410865 0.3336827363655143 0.006464906261455297 Si
0.5016050141751162 0.7128267021163236 0.775619608332167 N
0.4155226487145994 0.2955271138499381 0.6750079280424264 N
0.5383015324797592 0.5008706887435104 0.47601350129691883 N
0.11721599923074379 0.5540329412665885 0.8278108718999333 N
0.8704314348519172 0.6812525674929961 0.6358989799846513 N
0.8827840007692562 0.5540329412665885 0.32781087189993363 N
0.8351673213918522 0.8466796377183284 0.979329649948706 N
0.617600154009466 0.11201780915344384 0.8663792594632613 N
0.8448349465472347 0.25098318356063765 0.668218253995163 N
0.1295685651480828 0.6812525674929962 0.13589897998465114 N
0.5844773512854008 0.29552711384993813 0.17500792804242662 N
0.49839498582488384 0.7128267021163235 0.27561960833216703 N
0.155165053452765 0.2509831835606377 0.16821825399516332 N
0.4220275048227978 0.9202734220129156 0.06089497278922481 N
0.8686776759587198 0.4319169905938344 0.022423597503772017 N
0.3823998459905343 0.11201780915344384 0.366379259463261 N
0.4616984675202404 0.5008706887435104 0.976013501296919 N
0.16483267860814788 0.8466796377183283 0.47932964994870614 N
0.5779724951772025 0.9202734220129157 0.5608949727892251 N
0.1313223240412802 0.43191699059383437 0.522423597503772 N
