System
1.0
7.661097620267337 0.0385331018546641 0.0
-3.301316944845729 8.855755299755883 0.0
0.0 0.0 9.873731534613821
Al Se Br N 
4 4 12 4 
direct
0.38623852175425716 0.15877725387921693 0.1285910818349122 Al
0.113761478245743 0.34122274612078346 0.6285910818349124 Al
0.8862385217542569 0.6587772538792169 0.3714089181650877 Al
0.6137614782457433 0.8412227461207832 0.8714089181650876 Al
0.46980636263789294 0.6315886263664974 0.464424841007982 Se
0.5301926373621095 0.3684113736335027 0.5355751589920179 Se
0.9698073626378905 0.1315886263664973 0.0355751589920181 Se
0.030192637362109677 0.8684113736335027 0.964424841007982 Se
0.11848510741917738 0.7127626286743158 0.5336938488698838 Br
0.6855821826763322 0.6249354644292748 0.8288792842505359 Br
0.3144178173236681 0.3750645355707251 0.17112071574946408 Br
0.3815148925808227 0.7872373713256842 0.033693848869883594 Br
0.42904170416083787 0.0464191871539741 0.3242354146290257 Br
0.07095829583916198 0.4535808128460257 0.8242354146290257 Br
0.9290417041608384 0.546419187153974 0.1757645853709744 Br
0.814417817323668 0.8750645355707254 0.32887928425053575 Br
0.6184851074191773 0.21276262867431614 0.9663061511301161 Br
0.5709582958391617 0.953580812846026 0.6757645853709743 Br
0.185582182676332 0.1249354644292748 0.6711207157494641 Br
0.8815148925808228 0.2872373713256841 0.4663061511301164 Br
0.6535303908692426 0.5492483539586606 0.45358908906533135 N
0.8464696091307575 0.9507516460413395 0.9535890890653309 N
0.3464696091307571 0.4507516460413397 0.5464109109346691 N
0.15353039086924283 0.049248353958660306 0.0464109109346687 N
