System
1.0
-3.97587816419887 3.9758781235050153 2.927803873029722
3.97587816419887 -3.9758781235050153 2.927803873029722
3.975878123505015 3.9758781641988694 -2.927803873029722
Ag H W S N 
1 4 1 4 1 
direct
0.75 0.24999999999999997 0.5 Ag
0.35613104526669503 0.49863760473575836 0.05489734487947231 H
0.443739259856288 0.30123270038722516 0.945102655120528 H
0.698767299612775 0.6438689547333053 0.1425065594690699 H
0.5013623952642424 0.5562607401437116 0.8574934405309294 H
0.24999999999999997 0.7499999999999999 0.5 W
0.2543244072217786 0.8339129494804702 0.1759047953691023 S
0.658008154111375 0.07841961185267698 0.8240952046308977 S
0.9215803881473236 0.7456755927782199 0.5795885422586907 S
0.16608705051953 0.3419918458886254 0.4204114577413091 S
0.49999999999999994 0.49999999999999994 0.0 N
