System
1.0
1.910425433959849 -3.3089539718612695 0.0
1.910425433959849 3.3089539718612695 0.0
0.0 -0.0 6.628239082725837
Tb S O 
2 1 2 
direct
0.6666669999999968 0.3333330000000032 0.2816134958702905 Tb
0.3333330000000032 0.6666669999999968 0.7183865041297096 Tb
0.0 0.0 0.0 S
0.6666669999999968 0.3333330000000032 0.6294771756673374 O
0.3333330000000032 0.6666669999999968 0.3705228243326627 O
