System
1.0
2.9865051349529135 0.0925336610952855 -0.0580124358660707
-1.4102355137019829 2.4458498491530576 -0.001120952715027
-0.1057554161890664 -0.0628043647385821 4.962163868606536
Li Ni O 
1 1 2 
direct
0.6723062825453983 0.3365510134224822 0.4030059921609379 Li
0.010222305390611794 0.0049786013661195045 0.9705613339335442 Ni
0.2994855200220247 0.6498741520749047 0.1984898232100409 O
0.6844838920419624 0.3418982331364894 0.778743850695481 O
