System
1.0
4.630894616624082 -0.0180762959011854 0.0422237774200555
0.0771766571718854 5.508693485358793 0.3998170592684771
-0.0009020415602579 0.0755344151161531 7.612723529507716
V O F 
6 7 5 
direct
0.5211451872101494 0.1675089257006091 0.3339545315003323 V
0.4633119095541209 0.47802279718164503 0.9821774922323427 V
0.5297638010993139 0.8197468088981936 0.6636082490864292 V
0.9969951646891184 0.6852009045667733 0.3202227416972221 V
0.9637138670382258 0.3430563711713638 0.6765945542067885 V
0.015313597587034503 0.0080154581049888 0.0230728059510534 V
0.2052691375996827 0.6992736072038993 0.09653231315675491 O
0.30212695742399964 0.203979287965268 0.10717964760779052 O
0.29599438725896765 0.5298506471333083 0.7609596584049574 O
0.8015664407129135 0.9753404760379318 0.2374765508973788 O
0.7970792463075194 0.28990103966187464 0.9051219659780919 O
0.8070078339179393 0.6302638078704325 0.5561021951961544 O
0.6940130382015223 0.1300347786745245 0.5700490231685384 O
0.2009241116292161 0.028402127533906793 0.7728829353266594 F
0.709750514795833 0.7933238038856717 0.9023206596872635 F
0.6983512647711139 0.4756532458028125 0.22623254946707821 F
0.3023052601943404 0.8711886910870122 0.43473027977164075 F
0.1953712800090033 0.3712382215197809 0.43077984666352925 F
