System
1.0
3.518176382068921 4.1841018e-09 2.9586069e-09
1.7590876982815375 3.0468302008198407 1.479303e-09
1.7590876982815378 1.0156100683346472 2.872579226461619
Li Mg N 
1 1 1 
direct
0.75 0.75 0.7500000000000001 Li
0.24999999999999997 0.24999999999999997 0.25 Mg
0.0 0.0 0.0 N
