System
1.0
0.0 -0.0 -5.771194147104078
3.8106151057805384 -5.387541571442566 0.0
-3.8106151057805384 -5.387541571442566 0.0
Cu H N Cl 
2 12 4 4 
direct
0.7500009999999975 0.1100748405607231 0.1100748405607231 Cu
0.25 0.889924159439279 0.889924159439279 Cu
0.8943435630891752 0.46308285779408925 0.8412627196573275 H
0.6056564369108248 0.46308285779408925 0.8412627196573275 H
0.7500009999999975 0.3233464199818701 0.7138624867038412 H
0.3943425630891768 0.15873728034267262 0.5369181422059082 H
0.1056574369108227 0.15873728034267262 0.5369181422059082 H
0.25 0.2861365132961616 0.6766535800181301 H
0.6056564369108248 0.8412627196573275 0.46308285779408925 H
0.7500009999999975 0.7138624867038412 0.3233464199818701 H
0.25 0.6766535800181301 0.2861365132961616 H
0.3943425630891768 0.5369181422059082 0.1587372803426726 H
0.1056574369108227 0.5369181422059082 0.1587372803426726 H
0.8943435630891752 0.8412627196573275 0.46308285779408925 H
0.25 0.6313127999921436 0.15087838841186008 N
0.7500009999999975 0.84912161158814 0.36868820000785346 N
0.25 0.1508783884118601 0.6313127999921436 N
0.7500009999999975 0.36868820000785346 0.84912161158814 N
0.25 0.664898090886208 0.6648980908862081 Cl
0.25 0.1119257788265775 0.1119257788265775 Cl
0.7500009999999975 0.33510290911379 0.3351029091137899 Cl
0.7500009999999975 0.8880732211734178 0.8880732211734178 Cl
