System
1.0
5.59315191656461 -2.458027e-09 0.2280126297646763
2.7965764523113976 5.207211737428572 0.1140063159486068
-0.0010461628581935 1.5897e-12 11.613302187196933
Ca V N 
8 4 12 
direct
0.5355691549338993 0.40671880388669895 0.1479096415568251 Ca
0.38481101897707737 0.7747205586976539 0.4227600276029125 Ca
0.6151889810229222 0.2252794413023463 0.5772399723970874 Ca
0.1595315776747751 0.2252794413022806 0.9227600276029077 Ca
0.9422869588204822 0.5932811961130958 0.6479096415568857 Ca
0.4644318450660982 0.5932811961133015 0.8520903584431744 Ca
0.05771304117951794 0.4067188038869045 0.3520903584431145 Ca
0.840468422325225 0.7747205586977194 0.07723997239709228 Ca
0.7682602181417036 0.9989391903249873 0.3378161692810481 V
0.23173978185829647 0.0010608096750125 0.6621838307189518 V
0.7671994084667221 0.0010608096750841997 0.837816169281023 V
0.23280059153327803 0.9989391903249155 0.1621838307189771 V
0.9076966271944552 0.1846067456122059 0.7499999999998866 N
0.8075616564119719 0.8141428637428134 0.46313846200878916 N
0.6217045201549655 0.1858571362571452 0.9631384620088165 N
0.33734128667442076 0.6729765090216676 0.6284562763297648 N
0.9896822043034329 0.6729765090217401 0.8715437236702385 N
0.6626587133255789 0.3270234909783326 0.3715437236702356 N
0.010317795696566833 0.3270234909782597 0.1284562763297619 N
0.5048991845217823 0.9902026309565205 0.2499999999999878 N
0.49510081547821816 0.0097973690434795 0.750000000000012 N
0.09230337280554493 0.8153932543877939 0.2500000000001137 N
0.37829547984503403 0.8141428637428547 0.0368615379911835 N
0.19243834358802855 0.1858571362571867 0.5368615379912107 N
