System
1.0
6.870921117930677 4.7632129e-09 -0.0
-3.4354610506892778 5.950392316406098 -0.0
-0.0 0.0 8.489218837626499
Rb Cd Ag C N 
1 1 3 6 6 
direct
0.33333300000000315 0.6666669999999968 0.0 Rb
0.0 0.0 0.0 Cd
0.5082796396511426 0.0165592793016513 0.5 Ag
0.5082796396509189 0.4917203603494903 0.5 Ag
0.983440720697939 0.49172036034885835 0.5 Ag
0.9865404229693687 0.3441297652040201 0.2919437100667183 C
0.3575893422341657 0.344129765203558 0.708056289933282 C
0.986540422969541 0.6424106577655032 0.708056289933282 C
0.6558702347964617 0.6424106577655352 0.2919437100667183 C
0.6558702347962991 0.0134595770309308 0.708056289933282 C
0.35758934223417665 0.013459577030437998 0.2919437100667183 C
0.9905307453305455 0.2625147402356726 0.172124761863534 N
0.7374852597650899 0.7280160050945425 0.172124761863534 N
0.7374852597646445 0.0094692546702743 0.8278752381364656 N
0.27198399490463726 0.2625147402344069 0.8278752381364656 N
0.2719839949043639 0.0094692546697849 0.172124761863534 N
0.9905307453307179 0.7280160050953192 0.8278752381364656 N
