System
1.0
-3.0523666288797404 -3.0523666288797404 3.475211068804384
-3.0523666288797404 3.0523666288797404 -3.475211068804384
3.0523666288797404 -3.0523666288797404 -3.475211068804384
K N 
2 6 
direct
0.0 0.75 0.75 K
0.0 0.25 0.25 K
0.5 0.0 0.5 N
0.5 0.5 0.0 N
0.2251477012573186 0.8625738506286591 0.3625738506286594 N
0.774852298742681 0.1374261493713407 0.6374261493713408 N
0.5 0.6374261493713409 0.8625738506286591 N
0.49999999999999994 0.3625738506286594 0.1374261493713407 N
