System
1.0
2.9996835001178046 -5.195604299387046 0.0
2.9996834673652355 5.195604318296746 -0.0
0.0 -0.0 6.795122087287719
Mn Ru C N 
2 1 6 6 
direct
0.3333330000000032 0.6666669999999968 0.5000016215970996 Mn
0.6666669999999968 0.3333330000000032 0.4999983784029001 Mn
0.0 0.0 0.0 Ru
0.25954826162286315 9.655124917056547e-07 0.8138618302054729 C
0.7404517383771375 -9.655124919542229e-07 0.1861381697945269 C
-9.655126596009637e-07 0.2595472961103525 0.8138618302054729 C
0.740452703889797 0.740451738377156 0.8138618302054729 C
0.2595472961102034 0.25954826162284456 0.1861381697945269 C
9.655126597883604e-07 0.7404527038896476 0.1861381697945269 C
0.3902171112555789 0.3902272265340502 0.3165932127732033 N
1.0115278953760772e-05 0.6097828887438966 0.3165932127732033 N
-1.0115278953566987e-05 0.3902171112561035 0.6834067872267973 N
0.6097727734654677 -1.0115277946504971e-05 0.3165932127732033 N
0.39022722653453235 1.0115277946222496e-05 0.6834067872267973 N
0.6097828887444213 0.6097727734659509 0.6834067872267973 N
