System
1.0
7.861758585525948 6.09124e-09 4.538988178543654
2.6205858733230096 7.4121371457540715 4.538988178543654
0.0 0.0 9.077976357087309
K Cd C N 
4 2 8 8 
direct
-6.354949875089432e-18 0.5 0.5 K
0.49999999999999994 0.0 0.5 K
0.49999999999999994 0.5 1.2984951942428563e-17 K
0.49999999999999994 0.5 0.5 K
0.12499999999999999 0.125 0.125 Cd
0.875 0.875 0.8750000000000001 Cd
0.7754557672928303 0.7754557672927513 0.17363169812240195 C
0.2245442327063656 0.826368301879134 0.22454423270724888 C
0.173631698120707 0.7754557672936344 0.7754557672928304 C
0.7754557672936344 0.1736316981208659 0.7754557672927513 C
0.8263683018792928 0.2245442327063656 0.2245442327071694 C
0.22454423270716942 0.22454423270724888 0.8263683018775982 C
0.7754557672928303 0.7754557672927513 0.7754557672920189 C
0.22454423270716942 0.22454423270724888 0.22454423270798107 C
0.33139930237936194 0.7228668992053403 0.7228668992076518 N
0.7228668992053402 0.3313993023789054 0.7228668992078812 N
0.7228668992076517 0.722866899207881 0.7228668992099869 N
0.2771331007946596 0.6686006976210944 0.2771331007921194 N
0.27713310079234765 0.2771331007921194 0.6686006976255126 N
0.27713310079234765 0.2771331007921194 0.27713310079001324 N
0.7228668992076517 0.722866899207881 0.3313993023744873 N
0.6686006976206379 0.2771331007946595 0.27713310079234776 N
