System
1.0
3.061030069377742 -5.301859730850541 0.0
3.061030069377742 5.301859730850541 -0.0
0.0 0.0 9.917591613563143
Yb Ba Si N 
2 2 8 14 
direct
0.6666669999999968 0.33333300000000315 0.7650576525151139 Yb
0.33333300000000327 0.6666669999999967 0.26505765251511393 Yb
0.33333300000000327 0.6666669999999967 0.6366457128662122 Ba
0.6666669999999968 0.33333300000000315 0.13664571286621216 Ba
0.0 0.0 0.6868473045884699 Si
0.0 0.0 0.1868473045884698 Si
0.17424052722372912 0.8257594727762709 0.9527957463647792 Si
0.8257594727762773 0.651518945552555 0.4527957463647795 Si
0.6515189455525551 0.8257594727762771 0.9527957463647792 Si
0.17424052722372288 0.34848105444744487 0.9527957463647792 Si
0.8257594727762709 0.17424052722372896 0.4527957463647795 Si
0.348481054447445 0.17424052722372288 0.4527957463647795 Si
0.4871933553865772 0.5128066446134228 0.9036740192804951 N
0.025612289226839915 0.5128066446134216 0.9036740192804951 N
0.512806644613423 0.4871933553865771 0.4036740192804947 N
0.5128066446134216 0.02561228922683986 0.4036740192804947 N
0.4871933553865784 0.9743877107731601 0.9036740192804951 N
0.9743877107731602 0.48719335538657826 0.4036740192804947 N
0.15038352324966592 0.849616476750334 0.12474060230511719 N
0.15038352324966872 0.3007680464993319 0.12474060230511719 N
0.699231953500668 0.8496164767503311 0.12474060230511719 N
0.300768046499332 0.15038352324966867 0.6247406023051173 N
0.8496164767503313 0.6992319535006679 0.6247406023051173 N
0.0 0.0 0.8752192261790296 N
0.849616476750334 0.1503835232496659 0.6247406023051173 N
0.0 0.0 0.37521922617902975 N
