System
1.0
4.25331656936517 0.0 0.0
0.0 4.25331656936517 0.0
-0.0 -0.0 4.25331656936517
Mg Fe O 
3 1 4 
direct
0.0 0.5 0.5 Mg
0.5 0.0 0.5 Mg
0.5 0.5 0.0 Mg
0.0 0.0 0.0 Fe
0.5 0.0 0.0 O
0.5 0.5 0.5 O
0.0 0.0 0.5 O
0.0 0.5 0.0 O
