System
1.0
4.7089577009991315 0.0 0.0
0.0 4.663767930897352 -2.678340699450988
0.0 0.0046951127510241 5.407833410573802
Li Si O 
4 2 6 
direct
0.007159589733735 0.8310650659760417 0.34908821388257705 Li
0.5071595897337352 0.1689349340239584 0.6509117861174232 Li
0.5071595897337352 0.5180231479044669 0.3490882138817896 Li
0.007159589733735 0.4819768520955328 0.6509117861182107 Li
0.5011998327692836 0.8267337132133036 7.280070561749278e-13 Si
0.0011998327692832 0.17326628678669637 -7.278982014391995e-13 Si
0.8561770857773324 0.8829057233416097 8.849983322292152e-13 O
0.4165509509929555 0.542137881170207 0.7074646197051464 O
0.4165509509929555 0.834673261462021 0.2925353802975277 O
0.3561770857773325 0.1170942766583904 -8.8498875492722e-13 O
0.9165509509929549 0.1653267385379787 0.7074646197024725 O
0.9165509509929549 0.4578621188297932 0.2925353802948538 O
