System
1.0
4.394742593890273 -0.0 0.0
-0.0 4.394742593890273 0.0
-0.0 -0.0 4.394742593890273
Y Ag O 
1 1 3 
direct
0.5 0.5 0.5 Y
0.0 0.0 0.0 Ag
0.5 0.0 0.5 O
0.0 0.5 0.5 O
0.5 0.5 0.0 O
