System
1.0
5.183916907903085 -0.0 0.0
-2.5919584539515426 4.4894035632974445 -0.0
0.0 -0.0 10.636523401647395
Na Fe O 
8 4 12 
direct
-4.020934951236417e-13 0.6817859427971428 0.75 Na
0.3182140572020531 0.0 0.25 Na
4.021132857028546e-13 0.31821405720285734 0.25 Na
0.0 0.0 0.5 Na
0.0 0.0 0.0 Na
0.3182140572024553 0.31821405720285734 0.75 Na
0.6817859427979467 0.0 0.75 Na
0.6817859427975447 0.6817859427971428 0.25 Na
0.6666669999999968 0.33333300000000327 0.0 Fe
0.3333330000000032 0.6666669999999968 0.0 Fe
0.3333330000000032 0.6666669999999968 0.5 Fe
0.6666669999999968 0.33333300000000327 0.5 Fe
0.6216391861773097 0.621639186175484 0.598413085458316 O
-1.8255872234002078e-12 0.621639186175484 0.0984130854583161 O
-1.8255872234002078e-12 0.621639186175484 0.40158691454168377 O
1.8255943869050594e-12 0.3783608138245158 0.598413085458316 O
1.8255943869050594e-12 0.3783608138245158 0.9015869145416839 O
0.3783608138208645 0.0 0.598413085458316 O
0.3783608138208645 0.0 0.9015869145416839 O
0.6216391861791352 0.0 0.0984130854583161 O
0.6216391861791352 0.0 0.40158691454168377 O
0.3783608138226904 0.3783608138245158 0.0984130854583161 O
0.3783608138226904 0.3783608138245158 0.40158691454168377 O
0.6216391861773097 0.621639186175484 0.9015869145416839 O
