System
1.0
5.688591376454697 -0.0 -0.0
0.0 5.688591376454697 0.0
0.0 0.0 8.095630099188316
Li Fe Co O 
4 4 4 16 
direct
0.0 0.2416601418609164 0.0 Li
0.0 0.7583398581390839 0.5 Li
0.2416601418609164 0.0 0.25 Li
0.7583398581390839 0.0 0.75 Li
0.2522593394447921 0.2522593394447921 0.625 Fe
0.2522593394447921 0.7477406605552078 0.875 Fe
0.7477406605552078 0.2522593394447921 0.375 Fe
0.7477406605552078 0.7477406605552078 0.125 Fe
0.7568265120615437 0.5 0.75 Co
0.5 0.7568265120615437 0.5 Co
0.5 0.2431734879384563 0.0 Co
0.2431734879384563 0.5 0.25 Co
0.7318191062533742 0.9847767350998259 0.4947813283667475 O
0.7318191062533742 0.015223264900174201 0.0052186716332524 O
0.7356211691912378 0.4871583785555454 0.9836891354653349 O
0.7356211691912378 0.5128416214444547 0.5163108645346651 O
0.5128416214444547 0.7356211691912378 0.7336891354653349 O
0.5128416214444547 0.2643788308087628 0.7663108645346652 O
0.4871583785555454 0.7356211691912378 0.2663108645346652 O
0.015223264900174201 0.7318191062533742 0.24478132836674774 O
0.2643788308087628 0.5128416214444547 0.4836891354653348 O
0.2643788308087628 0.4871583785555454 0.0163108645346651 O
0.2681808937466255 0.9847767350998259 0.5052186716332522 O
0.2681808937466255 0.015223264900174201 0.9947813283667477 O
0.9847767350998259 0.2681808937466255 0.7447813283667478 O
0.015223264900174201 0.2681808937466255 0.2552186716332525 O
0.4871583785555454 0.2643788308087628 0.2336891354653349 O
0.9847767350998259 0.7318191062533742 0.7552186716332522 O
