System
1.0
6.397398081970167 -5.13254e-11 -1.8820132e-09
6.397398081921278 5.561544098232384 0.0148741507629522
3.1986995392870172 3.7146933580148773 2.6267279369844783
Hf N 
4 3 
direct
0.990213681535253 3.7999172304019767e-06 0.0195660370954974 Hf
0.24999999999999997 0.5 -1.7160710835925635e-20 Hf
0.7500000000000002 0.5 -1.7160710835925635e-20 Hf
0.5097863184647471 -3.7999172302575893e-06 0.9804339629045026 Hf
4.169332791323071e-06 0.500000000000006 0.4999999999999915 N
0.4999958306672089 0.499999999999994 0.5000000000000084 N
0.75 4.022867285814901e-17 0.49999999999999994 N
