System
1.0
6.756383238807088 -0.0 3.900799607804174
2.25212774626903 6.369979031536327 3.900799607804174
-0.0 0.0 7.801599215608348
Fe W N 
12 12 4 
direct
0.7029096812532418 0.7029096812531774 0.3912709562403985 Fe
0.7029096812531774 0.39127095624046027 0.7029096812531775 Fe
0.39127095624033187 0.7029096812531774 0.7029096812532415 Fe
0.2970903187467582 0.2970903187468226 0.29709031874682484 Fe
0.6087290437596682 0.2970903187468226 0.29709031874675823 Fe
0.2970903187468226 0.6087290437595398 0.29709031874682257 Fe
0.7029096812532418 0.7029096812531774 0.702909681253175 Fe
0.2970903187467582 0.2970903187468226 0.6087290437596017 Fe
0.5 0.49999999999999994 -2.0724065978026745e-17 Fe
1.2029029052270715e-17 0.49999999999999994 0.49999999999999994 Fe
0.5 0.0 0.49999999999999994 Fe
0.5 0.49999999999999994 0.49999999999999994 Fe
0.07908642188885298 0.0790864218889005 0.6709135781111234 W
0.9209135781111234 0.32908642188890047 0.9209135781110986 W
0.32908642188887693 0.9209135781110996 0.3290864218889012 W
0.9209135781111234 0.32908642188890047 0.32908642188887766 W
0.329086421888853 0.32908642188890047 0.9209135781111233 W
0.07908642188887681 0.6709135781110995 0.07908642188890137 W
0.670913578111147 0.6709135781110995 0.07908642188887677 W
0.6709135781111234 0.0790864218889005 0.07908642188887761 W
0.32908642188887693 0.9209135781110996 0.9209135781111223 W
0.07908642188887681 0.6709135781110995 0.6709135781111224 W
0.920913578111147 0.9209135781110996 0.3290864218888767 W
0.6709135781111234 0.0790864218889005 0.6709135781110986 W
0.0 0.0 0.0 N
0.0 0.0 0.5 N
0.5 0.0 -1.0362032989013372e-17 N
1.2029029052270715e-17 0.49999999999999994 -1.0362032989013372e-17 N
