System
1.0
5.600294097564619 -0.0162381740977478 0.9196959319454496
1.8419364625951955 5.073847467353057 1.8245237670792167
0.0131669363222389 0.0151886436999221 8.648298177037407
Na Co O 
8 2 8 
direct
0.9639588797524908 0.7896361999683729 0.3507180659718562 Na
0.9762765717428694 0.6038129603871208 0.761075374835601 Na
0.9911309069451242 0.3633867504843384 0.17571615131151613 Na
0.4809372615791103 0.8924012513398836 0.1442397399237971 Na
0.9735023027785783 0.2417313416188609 0.566919230740358 Na
0.46858502273735964 0.07823725338104348 0.7338304834846147 Na
0.45378035581222553 0.318699117291551 0.31918698166802617 Na
0.4714417864068025 0.44023698620123125 0.9280188837820078 Na
0.4415242798865183 0.6842820065633157 0.5015735681791275 Co
0.003377644924246849 0.9977440997800119 0.99336655215937 Co
0.20409539093024945 0.6726366254873399 0.10911780021273276 O
0.8659728001878636 0.995814480109716 0.8197317620262919 O
0.19806104518030046 0.21020467391612052 0.9432491900083836 O
0.5788801636686255 0.6862158807241769 0.6752260889563276 O
0.24681478250176844 0.47185316137714284 0.5516639399122202 O
0.24083554471380317 0.0093938968476052 0.38580705100183194 O
0.6991198835952189 0.547046703589923 0.36284464993063387 O
0.7458053766568686 0.13496661093223442 0.13211449589530136 O
