System
1.0
7.31229061478233 2.8719e-12 -2.9984094915018447
-1.2294997935985625 7.208184334209259 -2.9984094914947814
-0.0682800656273604 -0.0809121763753367 10.249017371041148
K Li Mn O 
11 1 4 16 
direct
0.28667214514790834 0.28667214514790856 0.57334429029581 K
0.5000000000000001 1.2707342554288479e-19 3.054357378036488e-17 K
0.25000000000000006 0.75 0.5 K
0.926109789826282 0.9261097898262817 0.24418869714326755 K
0.07389021017371822 0.6819210926830144 0.7558113028567326 K
0.7133278548520914 0.7133278548520915 0.4266557097041899 K
-1.8268662533201605e-19 0.49999999999999994 3.054357378036488e-17 K
0.6819210926830146 0.0738902101737182 0.7558113028567326 K
0.31807890731698546 0.31807890731698546 0.2441886971432674 K
0.75 0.25 0.5 K
0.5 0.5 6.108714756072976e-17 K
0.0 0.0 0.0 Li
0.6151117995578831 0.6151117995578834 0.7489530443705581 Mn
0.38488820044211675 0.8661587551873253 0.25104695562944185 Mn
0.8661587551873252 0.38488820044211663 0.25104695562944185 Mn
0.13384124481267504 0.1338412448126749 0.7489530443705582 Mn
0.9189671294554894 0.2034214376917561 0.12238856714725259 O
0.8891301371689581 0.5833361496675868 0.22521415328418942 O
0.991749222819092 0.9917492228190918 0.5591777147002173 O
0.6639159838847686 0.4166638503324131 0.7747858467158106 O
0.08103287054451061 0.0810328705445106 0.8776114328527472 O
0.5674274918811205 0.5674274918811204 0.5591777147002173 O
0.2034214376917561 0.9189671294554893 0.12238856714725259 O
0.3581209963834001 0.110869862831042 0.7747858467158106 O
0.008250777180908015 0.4325725081188796 0.4408222852997828 O
0.33608501611522906 0.6418790036166001 0.22521415328418942 O
0.6418790036166001 0.336085016115229 0.22521415328418948 O
0.7965785623082442 0.7965785623082439 0.8776114328527473 O
0.4325725081188795 0.0082507771809079 0.4408222852997827 O
0.11086986283104201 0.35812099638340006 0.7747858467158106 O
0.5833361496675871 0.8891301371689578 0.2252141532841895 O
0.4166638503324132 0.6639159838847686 0.7747858467158107 O
