System
1.0
4.879762954749189 3.4728908278721873 -0.330139247254372
-4.879762954749189 3.4728908278721873 0.330139247254372
-0.0051556985665445 0.0 6.1263067426996685
Mg H Cl O 
1 12 2 6 
direct
0.0 0.0 0.0 Mg
0.08186050669904284 0.3195569034357121 0.3189622745715559 H
0.6804430965642888 0.9181394933009571 0.31896227457155596 H
0.31955690343571214 0.0818605066990428 0.6810377254284441 H
0.3308052956795103 0.2799940558401768 0.2860194408752685 H
0.7200059441598236 0.6691947043204901 0.2860194408752685 H
0.9181394933009571 0.6804430965642888 0.6810377254284442 H
0.2799940558401767 0.3308052956795102 0.7139805591247314 H
0.27903840254445234 0.7209615974555472 0.013046363710868997 H
0.7209615974555472 0.2790384025444523 0.9869536362891306 H
0.2428165256162169 0.7571834743837826 0.2639115358077976 H
0.7571834743837825 0.24281652561621697 0.7360884641922016 H
0.6691947043204901 0.7200059441598236 0.7139805591247314 H
0.6878621454486447 0.3121378545513553 0.39088624794537397 Cl
0.31213785455135534 0.6878621454486447 0.609113752054626 Cl
0.7427215182044657 0.829950654403073 0.22169555973347244 O
0.7961620064837434 0.20383799351625698 0.8892411982673321 O
0.20383799351625692 0.7961620064837434 0.1107588017326675 O
0.2572784817955343 0.1700493455969265 0.7783044402665287 O
0.829950654403073 0.7427215182044659 0.7783044402665287 O
0.1700493455969265 0.2572784817955343 0.22169555973347244 O
