System
1.0
0.0 0.0 -3.9011406867528753
-3.791737674562234 -4.073470438859394 0.0
-3.791737674562234 4.073470438859394 0.0
Cd Br N 
1 2 2 
direct
0.0 0.0 0.0 Cd
0.5 0.7489062029421724 0.7489062029421724 Br
0.5 0.2510937970578278 0.2510937970578278 Br
0.0 0.3012694499799195 0.6987305500200801 N
0.0 0.69873055002008 0.3012694499799195 N
