System
1.0
3.1455930442904094 0.0372128266926191 0.0425683643793858
-1.3271452974692228 5.381073890435308 0.0061178915046469
-1.31923839133894 -0.9935051189524015 5.290117065441393
Li H O 
2 6 4 
direct
0.49977468335993125 0.660496727188371 0.3457332600954172 Li
0.4998024887187881 0.35569747719782 0.6500650219284329 Li
0.856372897611775 0.7618099595709685 0.016194835584597996 H
0.14366010612841446 0.9901431575233217 0.24427308255088856 H
0.8559753126031224 0.026045805472111203 0.7515317920797928 H
0.14322047105504504 0.2543910916319439 0.979604757032701 H
0.3126686259472587 0.7436681556503142 0.7340382816560336 H
0.686975600376545 0.2725734487364079 0.261778292814094 H
9.375439747942368e-06 0.8006857251364062 0.2055912300582577 O
0.9995821799536377 0.215505321804206 0.7902119377330602 O
0.6045317687774706 0.7232672652308579 0.7132985967456945 O
0.39508349002826615 0.2929538648572675 0.2824949117210486 O
