System
1.0
0.0 4.778998343205676 4.778998343205676
4.778998343205676 -0.0 4.778998343205676
4.778998343205676 4.778998343205676 -0.0
Ca Hf O 
6 1 8 
direct
0.5 6.954074095530026e-18 -6.954074095530026e-18 Ca
0.5 6.954074095530026e-18 0.5 Ca
6.954074095530026e-18 -6.954074095530026e-18 0.5 Ca
0.5 0.5 -1.3908148191060052e-17 Ca
6.954074095530026e-18 0.5 -6.954074095530026e-18 Ca
6.954074095530026e-18 0.5 0.5 Ca
0.0 0.0 0.0 Hf
0.7797382599385618 0.2202617400614382 0.22026174006143814 O
0.25 0.25 0.25 O
0.2202617400614382 0.7797382599385618 0.22026174006143814 O
0.2202617400614382 0.22026174006143817 0.7797382599385618 O
0.7797382599385618 0.2202617400614382 0.7797382599385618 O
0.7797382599385618 0.7797382599385618 0.22026174006143814 O
0.75 0.75 0.75 O
0.2202617400614382 0.7797382599385618 0.7797382599385618 O
