System
1.0
4.315026754603769 -0.0 -0.0
0.0 4.315026754603769 0.0
-0.0 0.0 4.315026754603769
Rb In O 
1 1 3 
direct
0.0 0.0 0.0 Rb
0.5 0.5 0.5 In
0.5 0.5 0.0 O
0.5 0.0 0.5 O
0.0 0.5 0.5 O
