System
1.0
3.5694999337063007 6.3898e-12 -0.0
-1.784749966791592 3.0912776213338824 0.0
0.0 0.0 2.6903843141637194
Si O F 
1 1 1 
direct
0.666665683779179 0.3333328245157432 0.0 Si
0.33333282453386914 0.6666656490677384 0.0 O
0.0 0.0 0.0 F
