System
1.0
3.942119291979471 -0.0 -0.0
-0.0 3.942119291979471 -0.0
0.0 -0.0 3.942119291979471
Ca Os O 
1 1 3 
direct
0.0 0.0 0.0 Ca
0.49999999999999994 0.49999999999999994 0.49999999999999994 Os
0.49999999999999994 0.49999999999999994 0.0 O
0.49999999999999994 0.0 0.49999999999999994 O
0.0 0.49999999999999994 0.49999999999999994 O
