System
1.0
4.868175872297966 0.0407054860753439 0.000432967713473
-0.8119493379044831 5.0674936294090935 0.1175941981526869
-0.4328637415767589 -0.7290778515425054 6.110312532382695
Li Co P O 
4 1 2 8 
direct
0.15577858612577403 0.2938458451750798 0.517079014316074 Li
0.33508420423543367 0.6121452821092911 0.2047506592636659 Li
0.6649157957645657 0.3878547178907091 0.7952493407363335 Li
0.8442214138742259 0.7061541548249199 0.4829209856839259 Li
0.0 0.0 0.0 Co
0.368254091815416 0.8275795239293081 0.7327066142354153 P
0.6317459081845834 0.17242047607069133 0.2672933857645853 P
0.21954847287001322 0.6983893725444686 0.9224366177914747 O
0.24316125971614883 0.6781422680474376 0.5120588728923635 O
0.3143582257379346 0.191523103085576 0.24138780312737984 O
0.3045238118337647 0.11670226012069922 0.7485301723039854 O
0.6954761881662358 0.8832977398793005 0.2514698276960137 O
0.6856417742620659 0.8084768969144238 0.7586121968726199 O
0.7568387402838512 0.3218577319525623 0.4879411271076366 O
0.7804515271299873 0.30161062745553074 0.077563382208525 O
