System
1.0
3.843404991972597 0.0 0.0
-0.0 11.963739929683065 0.0
0.0 0.0 12.878830967016242
Tb S N 
12 12 4 
direct
0.75 0.9317380231993292 0.3690374761475678 Tb
0.75 0.4317380231993289 0.1309625238524317 Tb
0.25 0.5682619768006708 0.8690374761475683 Tb
0.75 0.2863614556459002 0.360389539769845 Tb
0.25 0.7136385443540998 0.6396104602301553 Tb
0.75 0.7863614556459002 0.1396104602301549 Tb
0.25 0.2136385443540999 0.8603895397698448 Tb
0.75 0.4526152906296941 0.6431955692422611 Tb
0.25 0.547384709370306 0.3568044307577385 Tb
0.75 0.952615290629694 0.856804430757739 Tb
0.25 0.0473847093703059 0.1431955692422616 Tb
0.25 0.0682619768006709 0.6309625238524318 Tb
0.75 0.9071078335168546 0.6003076927912231 S
0.25 0.2749422498083994 0.1917101424852775 S
0.75 0.7250577501916 0.8082898575147233 S
0.75 0.1340051637272974 0.9915135019713543 S
0.25 0.8659948362727027 0.0084864980286457 S
0.75 0.6340051637272972 0.5084864980286458 S
0.25 0.3659948362727025 0.4915135019713545 S
0.25 0.5928921664831452 0.1003076927912229 S
0.25 0.0928921664831454 0.399692307208777 S
0.75 0.4071078335168543 0.8996923072087769 S
0.75 0.2250577501916002 0.6917101424852767 S
0.25 0.7749422498084 0.3082898575147227 S
0.25 0.5358405180622746 0.7018316290247028 N
0.75 0.9641594819377254 0.2018316290247028 N
0.25 0.0358405180622754 0.7981683709752974 N
0.75 0.4641594819377247 0.2981683709752974 N
