System
1.0
4.013076063605139 0.0038981034389667 -3.4999017383359736
-0.8273958414181342 3.9268582880896883 -3.499901739309022
-0.0031592165867091 -0.0038981033664762 5.324854841142144
Ta N 
4 3 
direct
1.6659838628361948e-17 0.5000000000000001 0.5 Ta
0.2657347652166877 0.26573476521687533 1.6731841052619644e-13 Ta
0.4999999999999999 5.843745699067946e-20 0.49999999999999994 Ta
0.7342652347833122 0.7342652347831246 -1.6725107198963894e-13 Ta
0.7499999999999999 0.25 0.5 N
0.0 0.0 0.0 N
0.25 0.7500000000000001 0.5000000000000001 N
