System
1.0
5.838982594024397 -5.31391605515e-05 -2.0657284218360172
-2.9195633648399952 5.056650321243768 -2.065800477398782
3.39425362419e-05 -2.82110185193e-05 6.1972810375628065
Cr Cu O 
4 3 12 
direct
9.758151957e-07 7.963404359999999e-07 0.5000007995060427 Cr
0.9999996601671233 0.4999996984296313 0.9999994815714762 Cr
0.5000005035036852 0.4999998724662764 0.5000001261406517 Cr
0.5000006437875575 0.9999997607062019 2.5449535119586094e-07 Cr
0.5000006956417664 0.5000002972285542 9.813247701625792e-07 Cu
4.758693772399218e-07 0.5000003926989502 0.499999720483863 Cu
0.49999980211226175 0.999999128246677 0.4999995694669785 Cu
0.6925703179881031 0.5073668982704088 0.8141308405897926 O
0.18385376025316205 0.304836944093697 0.4926105586127756 O
0.5073661415984125 0.8147963040450148 0.6932375175656009 O
0.6951625698652717 0.8790191964361084 0.18777798846765134 O
0.1209811256615845 0.816146104508627 0.3087596534611716 O
0.8161463313169901 0.6951628372406607 0.5073894255860603 O
0.30742979240482393 0.4926332774236082 0.18586929621905593 O
0.8790187993929283 0.18385388607204442 0.6912405686735813 O
0.1852023870758374 0.692570042837689 0.8784396057723721 O
0.8147969378800706 0.307429212852068 0.12155948003824657 O
0.49263338765386877 0.185202883177224 0.3067624368370745 O
0.3048376920119684 0.12098146692610463 0.8122226951874599 O
