System
1.0
5.0639382442865495 0.228893817775465 -0.1307102285082025
2.4164167329159536 4.456097082799341 0.1307102260009891
-0.6502075961238465 1.0381645047302863 9.944854368310436
Li Nb V O 
5 2 5 12 
direct
0.16328865359363307 0.6785812999543003 0.5050177627796438 Li
0.3158018050623656 0.8259283678761484 0.9915236242812618 Li
0.6785812999545722 0.16328865359343125 0.9949822372202272 Li
0.8259283678761693 0.3158018050625163 0.5084763757187638 Li
0.9252650884331893 0.9252650884332541 0.7500000000000279 Li
0.2512721706752133 0.25127217067518187 0.7500000000000077 Nb
0.7304998460886027 0.7304998460882756 0.2499999999999282 Nb
0.5845705931136482 0.5845705931138817 0.750000000000064 V
0.4423131020665638 0.44231310206645785 0.24999999999995648 V
0.08257628290396261 0.0825762829042308 0.2500000000000595 V
0.997538498425552 0.5022152917624625 0.9854184647441326 V
0.502215291762316 0.9975384984253476 0.5145815352558636 V
0.7813908784663957 0.04521495770780623 0.3750118523201653 O
0.9584269084477941 0.19945120507607672 0.8755271395884756 O
0.19945120507596636 0.9584269084479152 0.6244728604115417 O
0.14605117701175904 0.3638791391765033 0.37377765868945373 O
0.36387913917665843 0.14605117701170545 0.1262223413104936 O
0.2926359539749482 0.5510469790438296 0.8727910975185809 O
0.5510469790437651 0.29263595397511755 0.6272089024815086 O
0.4491030857098469 0.7071078307528983 0.391753903161878 O
0.7071078307526653 0.44910308571001784 0.10824609683819318 O
0.6293561542019445 0.8764857304751207 0.8725925006271852 O
0.8764857304749727 0.6293561542017592 0.6274074993728321 O
0.04521495770748571 0.7813908784657546 0.12498814767975498 O
