System
1.0
-1.7137925222086632 4.082370209360532 1.9261327658755283
1.7137925222086632 -4.082370209360532 1.9261327658755283
1.7137925222086632 4.082370209360532 -1.9261327658755283
Au O F 
1 1 2 
direct
0.5016462147994505 0.0016466338564529936 0.49999958094299773 Au
0.0016500016036345207 0.5016504206606366 0.49999958094299773 O
0.3409281340013333 0.5016393480337847 0.839289471884798 F
0.6623484098559226 0.5016379578504492 0.16071045200547346 F
