System
1.0
3.9551132326908514 0.0 0.0
0.0 3.9551132326908514 -0.0
0.0 -0.0 9.064946932051258
Nd Bi Cl O 
1 2 1 4 
direct
0.0 0.0 0.0 Nd
0.5 0.5 0.7159003096791791 Bi
0.5 0.5 0.2840996903208207 Bi
0.0 0.0 0.5 Cl
0.0 0.5 0.8379332761854074 O
0.0 0.5 0.1620667238145926 O
0.5 0.0 0.1620667238145926 O
0.5 0.0 0.8379332761854074 O
