System
1.0
5.796309236766431 -0.0 0.0
2.8981546183832156 4.4531392507885865 -0.7276827795598453
2.8981546183832156 0.7983136768647737 4.441020481150991
V Cr O 
2 2 8 
direct
0.2314946524163224 0.018505347891810596 0.0185053472755447 V
0.7685053475836766 0.9814946521081891 0.9814946527244549 V
1.5075260417518023e-17 0.49999999999999994 0.5 Cr
0.49999999999999994 0.49999999999999994 0.5 Cr
0.2968483014006719 0.1984978323210592 0.19849783198713436 O
0.25202349043984584 0.29856280519789 0.6973902139224254 O
0.2520234909240691 0.6973902136782373 0.298562804473632 O
0.19384296570885415 0.8015021676789409 0.8015021680128656 O
0.8061570342911467 0.1984978323210592 0.19849783198713436 O
0.7479765090759314 0.30260978632176316 0.7014371955263682 O
0.7479765095601538 0.70143719480211 0.30260978607757477 O
0.7031516985993278 0.8015021676789409 0.8015021680128656 O
