System
1.0
4.311171857037588 -0.0 0.0
0.0 4.311171857037588 -0.0
-0.0 0.0 4.311171857037588
Ga B N 
3 1 4 
direct
0.5 0.5 0.0 Ga
0.5 0.0 0.5 Ga
0.0 0.5 0.5 Ga
0.0 0.0 0.0 B
0.7799058291016581 0.7799058291016581 0.22009417089834196 N
0.7799058291016581 0.22009417089834196 0.7799058291016581 N
0.22009417089834196 0.7799058291016581 0.7799058291016581 N
0.22009417089834196 0.22009417089834196 0.22009417089834196 N
