System
1.0
2.4304041345355003 4.221718299135717 -0.4469150221313286
-2.4559903930315428 4.224331202352581 -0.2234585511813768
-0.4084031727472538 -0.709414208530932 8.747406298583588
Mn Co O 
1 5 12 
direct
0.0 0.0 0.0 Mn
0.16666752347993702 0.6666639530433088 0.49999999999929845 Co
0.6668165101916051 0.666365979493847 2.1624206002771226e-11 Co
0.3331834898083952 0.333634020506152 -2.1624197213750357e-11 Co
0.8333324765200637 0.33333604695669067 0.5000000000007014 Co
0.5000000000000001 -5.11547242725777e-17 0.5 Co
0.9643570992047119 0.33041906349893774 0.8917877309322947 O
0.36635019007167274 5.223440384161851e-12 0.10802549912968712 O
0.705224837262012 0.3304190635035497 0.10821226907897241 O
0.8688663290624644 0.6667290544081336 0.6077505314475815 O
0.20218291645636002 2.238691075215374e-12 0.6077478778624565 O
0.1311336709375359 0.3332709455918662 0.392249468552419 O
0.4644046165318122 0.6667290544020316 0.39224946855268294 O
0.6336498099283268 -5.223577359842375e-12 0.8919745008703127 O
0.2947751627379877 0.6695809364964509 0.8917877309210274 O
0.035642900795288236 0.6695809365010621 0.1082122690677059 O
0.5355953834681877 0.3332709455979689 0.6077505314473176 O
0.7978170835436404 -2.2387348190431716e-12 0.3922521221375432 O
