System
1.0
2.3895236776159523 -4.138776145164354 -0.0
2.3895236776159523 4.138776145164354 -0.0
-0.0 0.0 4.407160148891407
Cr N 
6 3 
direct
0.3268423484831984 4.682243042288524e-15 0.2523364208802085 Cr
4.709998617904153e-15 0.3268423484831984 0.2523364208802085 Cr
0.673157651516797 0.673157651516797 0.2523364208802085 Cr
0.32684234848320315 0.32684234848320315 0.7476635791197912 Cr
0.6731576515168015 -4.735046001304294e-15 0.7476635791197912 Cr
-4.679534850073036e-15 0.6731576515168015 0.7476635791197912 Cr
0.0 0.0 0.0 N
0.6666669999999968 0.3333330000000032 0.49999999999999994 N
0.3333330000000032 0.6666669999999968 0.49999999999999994 N
