System
1.0
5.74071322713191 0.1891889826874904 -0.0001498494648773
-3.7516085556387644 4.34936826984919 -0.0001498495585402
0.0001084901029817 0.0002475428042502 5.13110423719328
H C N 
6 6 2 
direct
0.8705955717501533 0.6981748550527997 0.39454311060167135 H
0.698174855054167 0.870595571739897 0.8945431106016776 H
0.6981858859710706 0.8706015587015469 0.4140266678951106 H
0.8706015587113949 0.6981858859690736 0.9140266678951051 H
0.2690176853765993 0.4337573083860277 0.6542848550600364 H
0.433757308344759 0.26901768531611553 0.1542848550600545 H
0.6563979180793021 0.656397298700057 0.4042859736918617 C
0.6563972987015245 0.6563979180772334 0.9042859736918624 C
0.4869451134971585 0.47963457157551087 0.6542845049219698 C
0.4796345715404275 0.48694511345582686 0.1542845049219232 C
0.4235615056772923 0.18965514718629436 0.6542836804014989 C
0.18965514710442097 0.42356150561478767 0.1542836804014228 C
0.36938174439529203 0.9576948358944547 0.6542902074279715 N
0.9576948357964351 0.3693817443303729 0.1542902074278368 N
