System
1.0
-0.0 -0.0 5.988702173375992
-3.54049287852748 3.5404940319194136 2.994351086687996
-3.5404940319194136 -3.540492878527481 2.994351086687996
Ag W S N 
1 1 4 1 
direct
0.49999999999999994 0.0 0.0 Ag
0.0 0.0 0.0 W
0.3404905329925416 0.09308219258113865 0.6371175597638461 S
0.07069028533752564 -0.09308219258113842 0.362882440236154 S
0.022391907243612515 0.637117559763846 -0.09308219258113844 S
0.5664272744263203 0.3628824402361539 0.0930821925811386 S
0.24999999999999994 0.5 0.5 N
