System
1.0
6.282780984723387 4.396517e-10 3.627365209722308
2.0942606624035793 5.9234626099083325 3.627365209722308
-0.0 -0.0 7.254730419444616
Na Fe Cu C N 
2 1 1 6 6 
direct
0.24999999999999997 0.25 0.25 Na
0.75 0.7500000000000001 0.7499999999999999 Na
0.0 0.0 0.0 Fe
0.49999999999999994 0.5 0.5 Cu
0.18257435524276963 0.8174256447572399 0.1825743552426161 C
0.8174256447572305 0.1825743552427602 0.8174256447573839 C
0.18257435524276963 0.8174256447572399 0.8174256447573744 C
0.8174256447577607 0.8174256447577797 0.18257435524222967 C
0.8174256447572305 0.1825743552427602 0.18257435524262552 C
0.18257435524223933 0.18257435524222027 0.8174256447577702 C
0.7028475100159117 0.7028475100158943 0.2971524899840968 N
0.29715248998360433 0.7028475100163873 0.7028475100162646 N
0.7028475100163959 0.2971524899836129 0.7028475100162559 N
0.29715248998360433 0.7028475100163873 0.29715248998374433 N
0.7028475100163959 0.2971524899836129 0.29715248998373567 N
0.2971524899840882 0.2971524899841055 0.7028475100159031 N
