System
1.0
10.667365657672264 0.0 0.0
-5.333682828836132 9.23820947544853 -0.0
0.0 -0.0 8.416755792403366
H W C N Cl 
24 6 8 2 18 
direct
0.8751196429168911 0.3534139570302717 0.692245098881217 H
0.47829431411453094 0.12488035708536319 0.692245098881217 H
0.27734776195075045 0.5546955239015009 0.071600363691172 H
0.5217056858866189 0.6465860429697287 0.307754901118783 H
0.6465860429708319 0.12488035708536319 0.692245098881217 H
0.8191440337501801 0.40957201687440337 0.5181198658197624 H
0.35341395703142237 0.4782943141156342 0.307754901118783 H
0.5904279831255966 0.18085596625119368 0.5181198658197624 H
0.4453044760996154 0.7226522380492489 0.071600363691172 H
0.12488035708310873 0.6465860429697287 0.307754901118783 H
0.2773477619496335 0.7226522380492489 0.071600363691172 H
0.1808559662498196 0.5904279831255966 0.4818801341802381 H
0.4782943141133799 0.3534139570302717 0.692245098881217 H
0.12488035708421205 0.4782943141156342 0.307754901118783 H
0.5546955239003839 0.27734776195075045 0.9283996363088277 H
0.5217056858854687 0.8751196429146374 0.307754901118783 H
0.35341395702916795 0.8751196429146374 0.307754901118783 H
0.5904279831242223 0.40957201687440337 0.5181198658197624 H
0.722652238049249 0.44530447609849816 0.9283996363088277 H
0.4095720168757768 0.5904279831255966 0.4818801341802381 H
0.6465860429685778 0.5217056858843653 0.692245098881217 H
0.4095720168744033 0.8191440337488067 0.4818801341802381 H
0.7226522380503666 0.27734776195075045 0.9283996363088277 H
0.8751196429157876 0.5217056858843653 0.692245098881217 H
0.8139168513936536 0.9069584206977238 0.8716000479037872 W
0.09304157930227629 0.18608314860455896 0.8716000479037872 W
0.09304157930406406 0.9069584206977238 0.8716000479037872 W
0.9069584206977238 0.8139168513954412 0.1283999520962139 W
0.1860831486063468 0.0930415793022763 0.1283999520962139 W
0.9069584206959362 0.0930415793022763 0.1283999520962139 W
0.6666669999999967 0.3333330000000032 0.8866701802164757 C
0.5895749787689873 0.179149957537968 0.6480080830666489 C
0.1791499575362669 0.5895749787689875 0.3519919169333516 C
0.5895749787672864 0.4104250212310123 0.6480080830666489 C
0.3333330000000032 0.6666669999999968 0.1133298197835245 C
0.4104250212327136 0.5895749787689875 0.3519919169333516 C
0.4104250212310122 0.8208500424620316 0.3519919169333516 C
0.8208500424637334 0.4104250212310123 0.6480080830666489 C
0.6666669999999967 0.3333330000000032 0.7076244977247621 N
0.3333330000000032 0.6666669999999968 0.292375502275237 N
0.8967864801318121 0.793572960263626 0.6793554093892111 Cl
0.10321351986818719 0.2064270397363744 0.3206445906107881 Cl
0.2064270397376572 0.1032135198681872 0.6793554093892111 Cl
0.3263662653825437 0.0 0.0 Cl
0.673633734620046 0.6736337346226376 0.0 Cl
-2.5902134096651964e-12 0.3263662653773632 0.0 Cl
0.1032135198694699 0.8967864801318122 0.3206445906107881 Cl
0.20105494299757434 0.7989450570057003 0.698734753128944 Cl
0.20105494299429885 0.40210988598859054 0.698734753128944 Cl
0.7989450570024258 0.2010549429942989 0.3012652468710565 Cl
0.7989450570057004 0.5978901140114087 0.3012652468710565 Cl
0.7935729602623423 0.8967864801318122 0.3206445906107881 Cl
2.5901702365045017e-12 0.6736337346226376 0.0 Cl
0.6736337346174559 0.0 0.0 Cl
0.597890114008134 0.7989450570057003 0.698734753128944 Cl
0.3263662653799527 0.3263662653773632 0.0 Cl
0.4021098859918661 0.2010549429942989 0.3012652468710565 Cl
0.8967864801305295 0.1032135198681872 0.6793554093892111 Cl
