System
1.0
3.2608221560553248 0.0023656050307789 5.320129772598482
1.502474829331074 2.8940523401974962 5.320129772671271
0.0038902772284907 0.0023656075643225 6.239930769392778
Sr Zr N 
1 1 2 
direct
0.0 0.0 0.0 Sr
0.49999999999999994 0.5 0.5 Zr
0.766311298639023 0.7663112986383849 0.7663112986365053 N
0.23368870136097686 0.23368870136161513 0.2336887013634949 N
