System
1.0
4.660981067165978 4.100991247036731 -0.0186501035266611
-4.660981067165978 4.100991247036731 0.0186501035266611
-2.7038890140290124 0.0 5.875068199003196
Li Mn P H O 
1 1 3 1 10 
direct
-0.11012423521982741 -0.11012423521982741 0.5 Li
0.6793727286162249 0.679372728616225 -1.0087221525219593e-19 Mn
0.20268270378020506 0.5606606720622569 0.08863390492654098 P
0.5807680796675442 0.5807680796675443 0.5 P
0.5606606720622569 0.2026827037802051 0.9113660950734583 P
0.2309219047315417 0.23092190473154167 1.0447971206483482e-20 H
0.35723633687543327 0.6732494406361016 0.9377321714723702 O
0.6995506080228004 0.9906556171974861 -0.001284832123683 O
0.6189389361011989 0.7545743444694453 0.6282062021917759 O
0.3261867066785913 0.595520376792133 0.3392549487677972 O
0.30586547488896 0.16686930469988603 0.8777465570844113 O
0.16686930469988603 0.30586547488896 0.1222534429155887 O
0.595520376792133 0.32618670667859123 0.6607450512322037 O
0.7545743444694454 0.6189389361011989 0.3717937978082235 O
0.9906556171974861 0.6995506080228004 0.0012848321236824999 O
0.6732494406361016 0.35723633687543327 0.062267828527629895 O
