System
1.0
5.193871738332652 0.0014951894434669 7.34303026873e-05
-0.0015855583434306 5.672720740790958 0.0017663531122625
3.8290543814e-06 -0.0001070515249551 7.54306871906716
Ta Zn O 
4 2 12 
direct
0.49049897018119937 8.3667758191e-06 0.9939389501967097 Ta
0.9905022866765014 0.4999964577396641 0.0060742574134217 Ta
0.9904870307458326 0.49995858386907394 0.4939395231299615 Ta
0.4904906210041779 4.83718590062e-05 0.5060726396697529 Ta
0.45896250876012246 0.5001858225686634 0.7500041750759096 Zn
0.958960823310113 -0.00017840195209060006 0.2500074346452686 Zn
0.3392593611631118 3.938710340830001e-05 0.2500054998693165 O
0.8392584091222165 0.4999729708791205 0.7500077816702097 O
0.2759530073399232 0.2718658557773175 0.9340075852504431 O
0.7759512867293358 0.22813874414610202 0.0660048490963386 O
0.27564578277958374 0.7284050514207402 0.5660173370503345 O
0.27513305561736895 0.7288901661028453 0.9340057929113589 O
0.7751352878864213 0.7711153713184423 0.0660064497616034 O
0.607550164152122 -6.030539521750003e-05 0.7500033549280508 O
0.7754158570064299 0.22862900660723431 0.43401447757243017 O
0.27541670122873524 0.2713782798373702 0.5659971872700422 O
0.775649670220375 0.7716022031585287 0.43399396108593713 O
0.1075491760764351 0.5000650681839783 0.2500057434029024 O
