System
1.0
4.972877190643686 0.3931542828989446 1.0269619715283904
-1.32316574960978 4.809709099813258 1.0269618129578302
0.2834468120710889 0.4040689358206236 3.7166608868225612
N Cl O 
1 1 3 
direct
0.5463374470487337 0.546337447054728 0.4562361619816018 N
0.1039289462610556 0.1039289462395551 0.8741628053326177 Cl
0.3485918059868283 0.3485918059743544 0.9017578155682547 O
0.4618181618017432 0.7493246389693989 0.3314221086487185 O
0.7493246389016445 0.4618181617619698 0.3314221084688161 O
