System
1.0
3.5186874627972893 -2.45755801563e-05 -9.66139396e-07
-1.7593722441729431 4.349534791677134 -1.7426206367249133
2.302181459e-07 -0.1590588699674352 6.63555693176909
Mn V O 
1 2 6 
direct
0.0 0.0 0.0 Mn
0.8126230005024205 0.6252411958102158 0.35139811583643604 V
0.18737699949757994 0.3747588041897839 0.6486018841635643 V
0.6520939047063828 0.30419591105263083 0.10848296271693829 O
0.3479060952936173 0.6958040889473694 0.891517037283062 O
0.9706474636570531 0.9412941279870071 0.2814627448209512 O
0.0293525363429466 0.0587058720129929 0.7185372551790494 O
0.6910590103235648 0.38212038422994815 0.5631617914482426 O
0.30894098967643485 0.617879615770052 0.43683820855175726 O
