System
1.0
1.3086597298169091 0.7555550472955981 5.038482459893398
-1.3086597298169091 0.7555550472955981 5.038482459893398
-0.0 -1.5111100945911962 5.038482459893398
Zn C N 
1 1 2 
direct
0.0 0.0 0.0 Zn
0.5000006156407295 0.5000006156407295 0.4999975781360035 C
0.7734256414808955 0.7734256414808954 0.7734210063980642 N
0.22657558979373518 0.22657558979373518 0.22657414986710747 N
