System
1.0
5.5357431587333465 -4.83935683537e-05 -1.3275056475005393
-0.2016008299977363 8.677313126745016 -0.8407190732515383
0.0091504449452588 0.0492147982383046 12.243610883397139
Bi Mo O 
10 3 24 
direct
0.4751996562080777 0.6776290624253861 0.9251705442892117 Bi
0.7747302384589377 0.5459337154585263 0.38662726292749966 Bi
0.5500282380104619 0.3223692653357761 0.07483032073473002 Bi
0.272941755792556 0.8176682785597568 0.4754444686546992 Bi
0.0894111000490557 0.5948803935440804 0.1508681585024785 Bi
0.38810154957374604 0.4540700628307037 0.6133724225891402 Bi
0.1759916856467006 0.24925496352308235 0.29747773456464377 Bi
0.9385460428722014 0.40511874266590664 0.8491309121806783 Bi
0.8785195233398506 0.7507430912823237 0.7025225857924599 Bi
0.7975053358634688 0.18233537782777862 0.5245585607794553 Bi
0.6795226026305902 0.9274421462672416 0.2482653175605393 Mo
-0.0033167421677472997 -3.0055721688000005e-06 -2.942602742999009e-07 Mo
0.43126404197318974 0.0725600572871217 0.7517372570593948 Mo
0.15291725196677403 0.16144696099423803 0.9705310559007098 O
0.0270446060049149 0.6874031902507499 0.5513146518217996 O
0.6504286126184774 0.5802454582140529 0.7820043188125101 O
0.47572384611506585 0.31258280679536105 0.4486867662686199 O
0.8684199839622087 0.41975414520592885 0.21799664571521038 O
0.7565708201156895 0.9358106779601425 0.8813236775634766 O
0.3604727239150183 0.41245353278974306 0.21263571024346758 O
0.7045570244055991 0.7746435603762795 0.1438058246300068 O
0.5445168954256574 0.830756533156128 0.3426902963723871 O
0.1478408030618333 0.5875487803067954 0.7873659045212729 O
0.5607676357178248 0.22534648510640362 0.8562012706658509 O
0.5436354071456221 0.6517928431488823 0.5509295200859021 O
0.2672002869284023 0.9178973377011047 0.7885360166933382 O
0.47864395583829 0.08209167860532501 0.21145811509490117 O
0.1823738702031248 0.8385436581408655 0.029467482347350117 O
0.7813696537341374 0.5000012801470629 7.428033561142677e-07 O
0.6177264209693732 0.0038711393201036007 0.6575035941506534 O
0.29560617176467724 0.4999962840644282 -3.7003594164979693e-06 O
0.8752279478597519 0.06418247992706 0.11866966350371509 O
0.1032518160955786 0.6501367179767049 0.3457621015854638 O
0.9602136651180876 0.9961463476899456 0.3424934508157724 O
0.7575027749621689 0.3498822439470366 0.654232917435883 O
0.20183094031558504 0.16925397569086473 0.6573221114428394 O
0.9927118575050287 0.34821073104927663 0.4490676105102906 O
