System
1.0
4.780936074274644 -0.0 0.0
-0.0 4.780936074274644 0.0
0.0 0.0 9.135975515964118
Ta Co O 
4 2 12 
direct
0.0 0.0 0.6697086921088914 Ta
0.4999990000000025 0.4999990000000025 0.8302913078911086 Ta
0.0 0.0 0.3302913078911086 Ta
0.4999990000000025 0.4999990000000025 0.1697086921088914 Ta
0.4999990000000025 0.4999990000000025 0.5 Co
0.0 0.0 0.0 Co
0.6916044219048413 0.6916044219048413 0.0 O
0.2954854986171475 0.2954854986171475 0.3257580398619498 O
0.2045135013828552 0.7954864986171449 0.8257580398619496 O
0.7045145013828525 0.7045145013828525 0.6742419601380504 O
0.3083955780951587 0.3083955780951587 0.0 O
0.7954864986171449 0.2045135013828552 0.8257580398619496 O
0.7954864986171449 0.2045135013828552 0.1742419601380503 O
0.2045135013828552 0.7954864986171449 0.1742419601380503 O
0.7045145013828525 0.7045145013828525 0.3257580398619498 O
0.2954854986171475 0.2954854986171475 0.6742419601380504 O
0.1916034219048368 0.8083965780951634 0.5 O
0.8083965780951634 0.1916034219048368 0.5 O
