System
1.0
4.8114175808986515 1.0125529478e-06 7.0017809e-09
1.96893862e-08 -2.7778732322220065 7.747470856818253
2.4057098003251314 -4.166810322398255 9.5646148e-09
Li Ni P O 
2 2 2 8 
direct
0.006157266972050524 0.0184708009162296 0.9876864660557731 Li
0.5693467101645526 0.7080401304938219 0.86130757967063 Li
0.4493012581435403 0.3479027744307009 0.10139748371279723 Ni
0.12620598656822993 0.378617959704613 0.7475870268636636 Ni
0.8637805696120997 0.5913407088371393 0.272439860774476 P
0.7117231471470123 0.1351684414402141 0.5765547057072753 P
0.1587424774931948 0.5224937331036378 0.0187995722089701 O
0.03421616326138487 0.20401978498121254 0.5490283928105397 O
0.5412933053151062 0.5224937331046119 0.29996421719139993 O
0.4167554439282593 0.2040197849821301 0.830196378282033 O
0.7530491777926325 0.20401978498300402 0.21273665894364718 O
0.9280961969710314 0.7842875909155188 0.1438086060541102 O
0.6474073463355923 0.9422210390042881 0.705186307332739 O
0.8224569502953113 0.5224937331028825 0.6362487443919623 O
