System
1.0
3.7666953210678833 -0.0542805639612622 -0.7155507405540807
-1.7121022779898545 8.56492560371331 -1.9401841172185652
-0.2207233785400234 0.2010680641579283 10.26207929993787
H C S O 
8 16 2 4 
direct
0.6076580489130478 0.2855714542846354 0.8528925385297335 H
0.10765885090208901 0.785571652238228 0.35289229271261585 H
0.36863712829307765 0.7769154014713242 0.10637136731264356 H
0.8686363164534411 0.27691495710952735 0.6063714564348635 H
0.5481196980906132 0.5754382997088073 0.23074095107672277 H
0.048120055703170295 0.0754378598347585 0.7307407548138019 H
0.400709506109838 0.4806586553951628 0.7257931468507092 H
0.9007090624075774 0.9806587441593848 0.2257929809241754 H
0.8693555210084215 0.2765921674698931 0.34471858955757523 C
0.3693571256377534 0.7765920725414024 0.8447187973014477 C
0.9309250008462958 0.0013535441712147994 0.33597344732312623 C
0.43092504628056616 0.5013538602722608 0.8359734623785828 C
0.04622379591525178 0.8922093979270115 0.40596336784065984 C
0.546223168683194 0.3922094964705002 0.9059634884190316 C
0.8906335347806947 0.14541603762204666 0.40924778620025115 C
0.39063418719824666 0.6454161614722308 0.9092476962843609 C
0.6019553094945572 0.4249530095293263 0.04785855715458957 C
0.9195067796032396 0.1688002870155286 0.5513760614332159 C
0.4195069827602406 0.6688007437071103 0.051375800470589955 C
0.018471078715600896 0.058073085147386905 0.620658965505949 C
0.5184706258129795 0.5580734428487394 0.12065889833890948 C
0.1379928210172849 0.7506372361998437 0.7013424427731723 C
0.637992389022216 0.25063733522869197 0.20134245379897056 C
0.10195557019173918 0.9249530747575341 0.5478583078085024 C
0.5528542146629213 0.9580774637151958 0.9271482756849725 S
0.05285292185347106 0.45807715723594683 0.42714838804240085 S
0.3333377549425385 0.1686077368977374 0.16227958318448127 O
0.7921997197644609 0.33595785773429754 0.1227399128149172 O
0.2922010475841782 0.8359579402147279 0.6227394526579062 O
0.8333387373512656 0.6686078676195286 0.6622797763711139 O
