System
1.0
4.9394218775444365 -0.1712514908802638 0.0172738934624489
-1.0497416653741338 -5.030729856020602 -0.1289958798813715
-1.7196357267149258 0.1615238854463842 -5.674280194458064
Li Fe P O 
2 2 2 8 
direct
0.7254106293545073 0.6886193075169852 0.039840230191706 Li
0.2745893706454922 0.31138069248301503 -0.0398402301917061 Li
0.012151418919356886 0.7903186605043906 0.6231270228858283 Fe
-0.012151418919356881 0.2096813394956086 0.3768729771141711 Fe
0.3458151897354477 0.8080915767715096 0.228401123599728 P
0.6541848102645526 0.19190842322848972 0.771598876400272 P
0.20634665431007576 0.6312245295771273 0.3988678121039279 O
0.31710739164793356 0.14795475683833076 0.6841830529052935 O
0.7286375663541003 0.326500968470302 0.0149555664762119 O
0.2395549980537028 0.0762588281699839 0.2022116822893469 O
0.7604450019462973 0.9237411718300162 0.7977883177106525 O
0.2713624336458995 0.6734990315296981 -0.014955566476211598 O
0.682892608352066 0.8520452431616691 0.31581694709470587 O
0.7936533456899246 0.36877547042287334 0.6011321878960716 O
