System
1.0
6.446871110186716 -0.0 0.0
0.0 7.334498325306683 0.0
0.0 0.0 9.820771451340915
Cu Bi Se I O 
6 2 4 2 16 
direct
0.24999999999999997 0.7946652497599446 0.25 Cu
0.7499999999999999 0.2053347502400557 0.75 Cu
0.49999999999999994 0.0 0.5 Cu
0.0 0.0 0.0 Cu
0.0 0.0 0.5 Cu
0.49999999999999994 0.0 0.0 Cu
0.24999999999999997 0.2505707837550453 0.25 Bi
0.7499999999999999 0.749429216244955 0.75 Bi
0.24999999999999997 0.6071113908516981 0.9435044436582095 Se
0.7499999999999999 0.3928886091483014 0.0564955563417906 Se
0.7499999999999999 0.3928886091483014 0.44350444365820957 Se
0.24999999999999997 0.6071113908516981 0.5564955563417904 Se
0.24999999999999997 0.1680019786602121 0.75 I
0.7499999999999999 0.8319980213397876 0.25 I
0.5396650841384788 0.2472721970187778 0.41559890399189153 O
0.24999999999999997 0.9922574953205019 0.1137269393808855 O
0.960334915861521 0.2472721970187778 0.0844010960081084 O
0.7499999999999999 0.0077425046794982 0.6137269393808856 O
0.7499999999999999 0.4118975751009845 0.6176676577333174 O
0.4603349158615208 0.7527278029812223 0.5844010960081084 O
0.24999999999999997 0.5881024248990151 0.3823323422666829 O
0.03966508413847909 0.7527278029812223 0.9155989039918917 O
0.5396650841384788 0.2472721970187778 0.0844010960081084 O
0.7499999999999999 0.4118975751009845 0.8823323422666827 O
0.7499999999999999 0.0077425046794982 0.8862730606191144 O
0.24999999999999997 0.9922574953205019 0.3862730606191145 O
0.960334915861521 0.2472721970187778 0.41559890399189153 O
0.03966508413847909 0.7527278029812223 0.5844010960081084 O
0.4603349158615208 0.7527278029812223 0.9155989039918917 O
0.24999999999999997 0.5881024248990151 0.11766765773331701 O
