System
1.0
3.3609645051313093 0.0022340010687693 5.919233946603233
1.5649896022657672 2.9743726527944347 5.919233945964011
0.0036965373323787 0.0022339983737439 6.806863829235863
Rb Ho O 
1 1 2 
direct
0.0 0.0 0.0 Rb
0.4999999999999999 0.5 0.4999999999999998 Ho
0.7745813764063131 0.7745813764062908 0.774581376406238 O
0.2254186235936863 0.22541862359370957 0.2254186235937617 O
