System
1.0
5.56722281395959 8.332327848e-07 -2.395289768183781
-1.0305702683656288 5.471004871654657 -2.3952889221748186
-0.0723691943734431 -0.0872752318501625 7.499215685904899
H I N O 
8 2 2 8 
direct
0.6416206490298407 0.059299177698592005 0.3489611026084454 H
0.2896619249033174 0.1416206490258446 0.848961102606911 H
0.5592991777080176 0.20734045358266795 0.8489611026103442 H
0.7073404535814948 0.7896619249099207 0.34896110260881 H
0.3583793509701594 0.9407008223014081 0.6510388973915547 H
0.710338075096683 0.8583793509741552 0.15103889739308865 H
0.4407008222919823 0.7926595464173323 0.15103889738965573 H
0.29265954641850533 0.21033807509007957 0.6510388973911904 H
0.875 0.6250000000000001 0.7500000000000001 I
0.125 0.37500000000000006 0.25000000000000006 I
0.3750000000000001 0.12500000000000003 0.7500000000000001 N
0.6250000000000001 0.8750000000000001 0.25000000000000006 N
0.6582859926661568 0.33742797878817815 0.5869544877620022 O
0.34171400733384305 0.6625720212118226 0.41304551223799824 O
0.0713315049055735 0.25047449102549857 0.4130455122368197 O
0.7504744910277426 0.8417140073183212 0.9130455122359994 O
0.8374279787883283 0.42866849508099786 0.0869544877611821 O
0.24952550897225806 0.15828599268167903 0.0869544877640003 O
0.9286684950944271 0.7495255089745019 0.5869544877631805 O
0.16257202121167202 0.5713315049190026 0.9130455122388178 O
