System
1.0
0.0 7.692848946141 0.0025105679098294
7.666888636570052 0.0 0.0
0.0 -0.1429887055172658 -7.691546235616764
Ca Ti O 
8 8 24 
direct
0.723130568268945 0.24999999999999997 0.7675029772712469 Ca
0.2768694317310554 0.7499999999999999 0.23249702272875297 Ca
0.23249866453052462 0.24999999999999997 0.7768669169418668 Ca
0.7675013354694753 0.7499999999999999 0.22313308305813329 Ca
0.7324974745956685 0.24999999999999997 0.2768705109585279 Ca
0.2675025254043313 0.7499999999999999 0.7231294890414725 Ca
0.22313124975701734 0.24999999999999997 0.2675017216787141 Ca
0.7768687502429829 0.7499999999999999 0.7324982783212857 Ca
0.0 0.0 0.0 Ti
0.0 0.49999999999999994 0.0 Ti
-2.3533864197713735e-18 0.49999999999999994 0.49999999999999994 Ti
-2.3533864197713735e-18 0.0 0.49999999999999994 Ti
0.5000000000000001 0.49999999999999994 -2.867683001640535e-21 Ti
0.5 0.0 0.49999999999999994 Ti
0.5 0.49999999999999994 0.49999999999999994 Ti
0.5000000000000001 0.0 -2.867683001640535e-21 Ti
0.5416425991204915 0.9582504657465281 0.2504228102668143 O
0.25041870373576314 0.04174869377282659 0.04164098014707619 O
0.749581296264237 0.5417486937728262 0.9583590198529235 O
0.5498322879695836 0.24999999999999997 0.029742338236918697 O
0.4501677120304168 0.7499999999999999 0.9702576617630816 O
0.9702593955482329 0.24999999999999997 0.9501695804096587 O
0.029740604451767804 0.7499999999999999 0.0498304195903412 O
0.5416425991204915 0.5417495342534718 0.2504228102668143 O
0.45835740087950855 0.041749534253472095 0.7495771897331855 O
0.45835740087950855 0.458250465746528 0.7495771897331855 O
0.7504225156262357 0.4582505601067258 0.5416407563932557 O
0.9501691891142515 0.7499999999999999 0.47025935551170206 O
0.24957748437376437 0.5417494398932741 0.45835924360674435 O
0.7504225156262357 0.0417494398932742 0.5416407563932557 O
0.958357386565077 0.45825136066432703 0.2495763597741711 O
0.0416426134349233 0.958251360664327 0.750423640225829 O
0.0416426134349233 0.5417486393356729 0.750423640225829 O
0.958357386565077 0.041748639335672896 0.2495763597741711 O
0.25041870373576314 0.45825130622717336 0.04164098014707619 O
0.04983081088574831 0.24999999999999997 0.5297406444882979 O
0.529742758695892 0.7499999999999999 0.5498308992434632 O
0.4702572413041078 0.24999999999999997 0.4501691007565364 O
0.24957748437376437 0.9582505601067258 0.45835924360674435 O
0.749581296264237 0.9582513062271736 0.9583590198529235 O
