System
1.0
4.00512372164056 -0.0 0.0
-0.0 6.484172882640472 0.0
0.0 0.0 7.930075977437367
Rb H O 
4 4 4 
direct
0.25 0.9921863381753813 0.8082252477150272 Rb
0.75 0.5078136618246186 0.3082252477150271 Rb
0.25 0.4921863381753822 0.6917747522849729 Rb
0.75 0.0078136618246181 0.1917747522849728 Rb
0.75 0.066207955913325 0.5444023143328808 H
0.25 0.43379204408667515 0.0444023143328816 H
0.75 0.5662079559133256 0.9555976856671193 H
0.25 0.9337920440866744 0.45559768566711845 H
0.25 0.7905678324407089 0.4175555329811428 O
0.75 0.709432167559291 0.9175555329811428 O
0.25 0.290567832440709 0.08244446701885721 O
0.75 0.2094321675592911 0.5824444670188573 O
