System
1.0
-3.646891402018593 -0.0981103468709518 0.0123119148718182
1.3890579538075714 7.5723630358130425 0.0329496637766329
-0.2259337379508728 -2.4609141400737906 -8.867218936048909
Na C N 
2 8 6 
direct
0.169149018203 0.8437233509624705 0.8450698149326404 Na
0.8308509817970005 0.1562766490375296 0.1549301850673595 Na
0.2500541170114807 0.8189107938160157 0.2024873521865357 C
0.2980008188732991 0.7061427986509751 0.2932636870436323 C
0.37967352004941285 0.5326116291041469 0.22667194874108626 C
0.7019991811267011 0.2938572013490254 0.7067363129563674 C
0.6203264799505871 0.4673883708958605 0.7733280512589132 C
0.7499458829885268 0.1810892061839841 0.7975126478134643 C
0.24006008002478374 0.7607279220377102 0.44954266249222546 C
0.7599399199752166 0.2392720779622897 0.5504573375077744 C
0.1898779222034337 0.803415246368236 0.5791008264430187 N
0.8101220777965668 0.1965847536317641 0.42089917355698137 N
0.4448721837492472 0.38629398308059987 0.1723886972889037 N
0.21094446081101442 0.9130742095190616 0.1255094502840894 N
0.7890555391889865 0.08692579048093878 0.8744905497159178 N
0.555127816250753 0.6137060169194006 0.8276113027110963 N
