System
1.0
7.11366944173789 0.0023458593188161 -0.95282327338529
-1.0892649315259972 7.029779321041749 -0.9528232794425496
0.0020097172738612 0.0023458514359073 7.177197489431655
Co H C N 
2 18 6 12 
direct
0.0 0.0 0.0 Co
0.5 0.5 0.49999999999999994 Co
0.5925329063104697 0.2653686479310462 0.238304522162282 H
0.19930988472013172 0.44770949889534495 0.6568645388643236 H
0.7346313520684885 0.7616954778347065 0.40746709369062445 H
0.40746709368953066 0.7346313520689536 0.7616954778377175 H
0.7616954778359345 0.4074670936886072 0.7346313520712585 H
0.2653686479315121 0.2383045221652928 0.5925329063093752 H
0.5522905011081355 0.3431354611374591 0.8006901152828019 H
0.23830452216406545 0.5925329063113935 0.2653686479287423 H
0.4477094988918657 0.6568645388625411 0.19930988471719793 H
0.567436727011725 0.8483987942615192 0.655451461018982 H
0.655451461019495 0.5674367270144377 0.8483987942644281 H
0.1516012057355592 0.3445485389809537 0.4325632729855433 H
0.43256327298827557 0.1516012057384818 0.3445485389810192 H
0.34454853898050536 0.4325632729855627 0.1516012057355716 H
0.8006901152798684 0.5522905011046552 0.3431354611356757 H
0.34313546113708143 0.8006901152828713 0.5522905011069396 H
0.6568645388629166 0.19930988471712863 0.4477094988930596 H
0.8483987942644418 0.6554514610190476 0.5674367270144577 H
0.23594006650244492 0.1140714633118386 0.9509186276422353 C
0.8859285366875516 0.049081372355342004 0.7640599334995501 C
0.95091862763687 0.23594006649558463 0.11407146330800952 C
0.11407146331244838 0.9509186276446583 0.23594006650045055 C
0.04908137236313038 0.7640599335044155 0.8859285366919905 C
0.7640599334975555 0.8859285366881603 0.04908137235776386 C
0.44888369079726304 0.7451419660044291 0.6310801552291141 N
0.7451419660044856 0.6310801552282851 0.4488836907976023 N
0.6310801552290239 0.44888369079755264 0.7451419660057534 N
0.811676145887163 0.0780369865021462 0.6175031583195446 N
0.0780369865149352 0.6175031583278066 0.8116761458946202 N
0.6175031583179146 0.8116761458899211 0.078036986506315 N
0.3689198447709759 0.5511163092024481 0.2548580339942471 N
0.921963013485065 0.3824968416721918 0.1883238541053805 N
0.38249684168208536 0.18832385411007924 0.921963013493685 N
0.25485803399551465 0.36891984477171513 0.5511163092023973 N
0.18832385411283672 0.9219630134978535 0.38249684168045517 N
0.5511163092027368 0.2548580339955713 0.3689198447708854 N
