System
1.0
3.0061019351925724 -0.00263322678982 4.501315146046495
1.3629115221766677 2.6793894754906264 4.501315146046494
-0.0042979639811015 -0.0026332264835897 5.412806273956523
Zr Ti N 
1 1 2 
direct
0.5000000000000001 0.5000000000000001 0.49999999999999994 Zr
0.0 0.0 0.0 Ti
0.25524042807896113 0.2552404280789612 0.2552404280799887 N
0.7447595719210387 0.7447595719210389 0.7447595719200112 N
