System
1.0
6.634778702664371 0.0422614392822551 -0.8496631256201398
-4.016893932176757 6.054356425161311 7.35096664e-08
-0.0895522253588089 -0.0594153592709935 14.638233303305888
Ba Sn N 
10 4 12 
direct
0.09600317016175566 0.7727751941069173 0.9919908787053662 Ba
0.9039968298382852 0.6767720239474418 0.5080091212945697 Ba
0.9039968298382446 0.2272248058930825 0.008009121294633903 Ba
0.0960031701617146 0.3232279760525584 0.4919908787054302 Ba
0.3154258686643042 0.06928214219166409 0.7132113806157827 Ba
0.6845741313347137 0.7538572735277288 0.7867886193852369 Ba
0.6845741313356956 0.9307178578083359 0.28678861938421724 Ba
0.3154258686652864 0.24614272647227128 0.21321138061476258 Ba
-5.319649824684811e-13 0.3752690442550272 0.7500000000004667 Ba
5.320855494134015e-13 0.6247309557449721 0.24999999999953326 Ba
0.558090904650836 0.6647949213050958 0.0749439431670347 Sn
0.44190909534925826 0.1067030166550021 0.4250560568328761 Sn
0.5580909046507416 0.8932969833449981 0.5749439431671234 Sn
0.4419090953491637 0.3352050786949041 0.9250560568329651 Sn
0.3922179413693431 0.7793080007126941 0.43276532842251664 N
0.9029208417645217 0.9739463815547814 0.6243257471375468 N
0.0970791582357282 0.0710255397921913 0.8756742528619937 N
0.09707915823547829 0.026053618445218297 0.3756742528624534 N
0.9029208417642716 0.9289744602078088 0.1243257471380064 N
0.2884611826202525 0.6937191461813678 0.653634626609682 N
0.7115388173780506 0.40525796355988686 0.8463653733918021 N
0.7115388173797476 0.3062808538186321 0.34636537339031837 N
0.2884611826219494 0.5947420364401134 0.1536346266081983 N
0.6077820586306565 0.22069199928730576 0.5672346715774832 N
0.3922179413702108 0.6129099406549905 0.9327653284222058 N
0.6077820586297893 0.3870900593450092 0.0672346715777944 N
