System
1.0
-0.0315942771580985 -2.2908544293080553 -3.6595905149076766
0.0315942771580985 -2.2908544293080553 3.6595905149076766
-7.927446742437387 2.2908544293080553 1.0509453864547806
K C N 
2 2 2 
direct
0.9736701517027406 0.44855250361887816 0.5416446337746823 K
0.0930921301557968 0.0679754820719376 0.041644633774682 K
0.48136787523739993 0.7038884252089902 0.33499217519715213 C
0.6311037499881619 0.35362429995975897 0.8349921751971531 C
0.5863860219504309 0.8399821200626939 0.22636219102817004 N
0.3863800709654697 0.1399771690777367 0.7263621910281706 N
