System
1.0
0.0 4.93344588836228 0.2051505910958672
6.581481499695852 0.0 0.0
0.0 -0.667833139843244 -9.79823720547273
Mn Sb P O 
1 3 4 16 
direct
0.8066398364644454 0.49999999999999994 0.2944317120068347 Mn
0.17626961894712534 0.0 0.6896715278990873 Sb
0.27030238761704406 0.0 0.17506203297468384 Sb
0.7603060877020715 0.49999999999999994 0.841329608296854 Sb
0.1634843922751356 0.49999999999999994 0.5935649073328324 P
0.24592599173671661 0.49999999999999994 0.10559649335523372 P
0.7646294663289338 0.0 0.9126150011987573 P
0.8195796112141133 0.0 0.3903110533594165 P
0.6777657025339626 0.8041480716931466 0.3269261831347035 O
0.8845831890822359 0.49999999999999994 0.655109816493184 O
0.5625910568464149 0.49999999999999994 0.12673498267118782 O
0.8826975017380251 0.17970860785844808 0.831390403447168 O
0.8826975017380252 0.8202913921415517 0.831390403447168 O
0.8719037054735904 0.0 0.0642874454841059 O
0.16287281535392104 0.49999999999999994 0.9485399870765193 O
0.12625702673091843 0.0 0.3625428360554522 O
0.1219579035846122 0.31837654202702925 0.1767918178611125 O
0.454037322748698 0.0 0.9018937285842855 O
0.6777657025339626 0.1958519283068536 0.3269261831347035 O
0.3315956970923922 0.6884371795429228 0.6419524834658827 O
0.3315956970923922 0.3115628204570767 0.6419524834658827 O
0.08746733681830142 0.49999999999999994 0.4366094789512819 O
0.1219579035846122 0.6816234579729719 0.1767918178611125 O
0.8151165447623319 0.0 0.5475816124425259 O
