System
1.0
3.959536007478677 0.0 -0.0
-0.0 3.959536007478677 -0.0
0.0 0.0 3.959536007478677
Hg Ir O 
1 1 3 
direct
0.0 0.0 0.0 Hg
0.49999999999999994 0.49999999999999994 0.49999999999999994 Ir
0.49999999999999994 0.49999999999999994 0.0 O
0.49999999999999994 0.0 0.49999999999999994 O
0.0 0.49999999999999994 0.49999999999999994 O
