System
1.0
4.384653886434294 -0.1061238291376514 -1.0618130464252118
-1.9881792901750766 4.043526406588699 -0.402142637418228
0.026649623050829 0.1383228717843441 8.38841240361975
H C O 
12 6 2 
direct
0.06237100143910548 0.2172187937376969 0.0952716699676523 H
0.3811453340051987 0.46463466404098924 0.6641992494636502 H
0.0679681850240528 0.48944405652371553 0.8511107847893113 H
0.8894091214445692 0.7342017653547335 0.9246136129842613 H
0.3728807270896907 0.2170454468982822 0.9246431491349768 H
0.5623597353749521 0.21671595858315953 0.5952367965006347 H
0.5458562707708626 0.9669807964644898 0.8508247010667769 H
0.5679880239658334 0.4900191148663905 0.3511410543705899 H
0.045818994121138094 0.9675546116055397 0.3508820185841699 H
0.38935627839805026 0.7346919563557718 0.4246502974662164 H
0.8728846287206502 0.2176990687789035 0.4246683221178257 H
0.8811628501833776 0.4651774466775112 0.1642079164747887 H
0.8865871127007283 0.09294989748507888 0.3099110094018108 C
0.4003817979519515 0.6069602253101729 0.3099795683809375 C
0.0444730503134822 0.3454257481031012 0.2065822052591088 C
0.38660506344848855 0.09236664936685142 0.8098708700443661 C
0.9003893039423295 0.6064143547108766 0.8099459334667173 C
0.5444684096561027 0.3448905678446358 0.7065582572558624 C
0.5481448518576082 0.8479882812827223 0.21287316344561288 O
0.04817025959182735 0.8474005960093641 0.712825419824729 O
