System
1.0
2.8264652050107704 1.6438192382450547 4.7368560672404545
5.755699413229034 -0.0227245878092651 -0.0161131399959319
2.8264652033870745 5.0139489668753985 -0.0161131531585848
Li Cr Fe O 
3 3 1 8 
direct
0.5000020000000022 0.9999990000000024 0.9999990000000023 Li
0.9999990000000027 0.9999990000000025 0.5000020000000018 Li
0.9999990000000027 0.500002000000002 0.9999990000000022 Li
0.5000000000000001 0.9999990000000023 0.49999999999999994 Cr
0.5000000000000001 0.5000000000000001 0.9999990000000023 Cr
0.9999990000000027 0.5000000000000002 0.4999999999999998 Cr
0.49999900000000247 0.4999990000000024 0.4999990000000026 Fe
0.25722399290729075 0.25722399290996717 0.2572239929100685 O
0.7183676611107173 0.2658071912147121 0.26580719122117097 O
0.26580719122293 0.26580719121797414 0.7183676611037308 O
0.2658071912164073 0.7183676611103894 0.26580719121791 O
0.734192808783593 0.28163233888961076 0.7341928087820898 O
0.7341928087770699 0.734192808782026 0.2816323388962689 O
0.281632338889283 0.7341928087852878 0.734192808778829 O
0.7427730070927098 0.7427730070900332 0.7427730070899321 O
