System
1.0
2.9635519686506995 -5.133022377902452 -0.0
2.9635519686506995 5.133022377902452 -0.0
-0.0 -0.0 8.753147453052716
Ti Mn O 
6 2 16 
direct
0.1666089833913481 0.8333910166086521 0.7937615365039898 Ti
0.6667810332173486 0.8333910166086941 0.7937615365039898 Ti
0.1666089833913061 0.3332189667826516 0.7937615365039898 Ti
0.8333910166086941 0.6667810332173486 0.2937615365039901 Ti
0.3332189667826516 0.1666089833913061 0.2937615365039901 Ti
0.8333910166086522 0.16660898339134828 0.2937615365039901 Ti
0.3333330000000032 0.6666669999999968 0.5169357441657962 Mn
0.6666669999999968 0.3333330000000032 0.0169357441657959 Mn
0.3485004473849826 0.1742502236923247 0.8956296510828744 O
0.6666669999999968 0.3333330000000032 0.4065595184063502 O
0.9467721732008588 0.473386086600545 0.1550181827929595 O
0.5266139133996932 0.4733860866003068 0.1550181827929595 O
0.17425022369232473 0.3485004473849826 0.3956296510828741 O
0.8257497763076753 0.6514995526150171 0.8956296510828744 O
0.4733860866003068 0.5266139133996932 0.6550181827929599 O
0.0 0.0 0.6854076262883815 O
0.6514995526150171 0.8257497763076753 0.3956296510828741 O
0.0 0.0 0.1854076262883816 O
0.5266139133994553 0.05322782679914105 0.1550181827929595 O
0.3333330000000032 0.6666669999999968 0.90655951840635 O
0.473386086600545 0.9467721732008588 0.6550181827929599 O
0.17425022369265813 0.8257497763073417 0.3956296510828741 O
0.05322782679914101 0.5266139133994553 0.6550181827929599 O
0.8257497763073417 0.17425022369265813 0.8956296510828744 O
