System
1.0
5.110895318606615 0.0 0.0
-0.0 6.897300423816396 0.0
0.0 0.0 9.154197151367507
Na Mn P O 
4 4 4 16 
direct
0.0253929555944898 0.25 0.6484251541852354 Na
0.5253929555944902 0.75 0.8515748458147647 Na
0.9746070444055097 0.75 0.3515748458147647 Na
0.47460704440551027 0.25 0.1484251541852352 Na
0.49999999999999994 0.5 0.5 Mn
0.0 0.5 0.0 Mn
0.49999999999999994 0.0 0.5 Mn
0.0 0.0 0.0 Mn
0.4704170193945316 0.75 0.1760673240744725 P
0.9704170193945315 0.25 0.3239326759255274 P
0.5295829806054683 0.25 0.8239326759255275 P
0.0295829806054684 0.75 0.6760673240744725 P
0.2594707311058363 0.25 0.378665271052029 O
0.759470731105836 0.75 0.1213347289479711 O
0.32824465912505046 0.5671373949234525 0.12026190164964862 O
0.8282446591250507 0.4328626050765473 0.3797380983503513 O
0.671755340874949 0.0671373949234528 0.8797380983503513 O
0.1717553408749493 0.9328626050765475 0.6202619016496488 O
0.671755340874949 0.4328626050765473 0.8797380983503513 O
0.5466465723376768 0.25 0.6523801094129938 O
0.32824465912505046 0.9328626050765475 0.12026190164964862 O
0.8282446591250507 0.0671373949234528 0.3797380983503513 O
0.4533534276623228 0.75 0.3476198905870065 O
0.9533534276623231 0.25 0.1523801094129936 O
0.24052926889416376 0.25 0.8786652710520292 O
0.0466465723376771 0.75 0.8476198905870062 O
0.1717553408749493 0.5671373949234525 0.6202619016496488 O
0.7405292688941639 0.75 0.6213347289479709 O
