System
1.0
5.880091601233449 -0.0479550631679821 3.6512963703621395
2.0069017106192124 5.527216519270197 3.6512963703621417
-0.0690277940442414 -0.0479550718951387 6.921175733794392
Fe Pb S O 
3 1 2 14 
direct
1.2644713468778063e-18 -2.314306777857285e-19 0.5 Fe
0.49999999999999994 -1.0455922205385154e-18 -1.3965346099700238e-17 Fe
-8.8130545249625e-18 0.5 -1.3965346099700238e-17 Fe
0.0 0.0 0.0 Pb
0.6915712737993882 0.6915712737993882 0.6915712737972115 S
0.3084287262006122 0.3084287262006123 0.3084287262027894 S
0.2658587017851841 0.8924134382307766 0.2658587017830693 O
0.1075865617692234 0.7341412982148161 0.7341412982169305 O
0.7341412982126413 0.7341412982126414 0.10758656177548304 O
0.734141298214816 0.1075865617692234 0.7341412982169305 O
0.5176451014529442 0.1562448242893141 0.1562448242963034 O
0.156244824292498 0.156244824292498 0.5176451014503751 O
0.8437551757075017 0.8437551757075018 0.48235489854962443 O
0.4823548985470553 0.8437551757106863 0.8437551757036961 O
0.265858701787359 0.26585870178735904 0.8924134382245167 O
0.843755175710686 0.4823548985470554 0.8437551757036961 O
0.3915992366290769 0.391599236629077 0.39159923663029866 O
0.6084007633709226 0.6084007633709226 0.6084007633697002 O
0.1562448242893141 0.5176451014529443 0.1562448242963034 O
0.8924134382307765 0.2658587017851842 0.2658587017830693 O
