System
1.0
5.602650829771817 1.562047e-10 3e-16
-2.8013257043700364 4.852037779982609 3e-16
0.0 -0.0 8.895058009030064
Al O 
10 16 
direct
0.8375915708971693 0.16240842910283051 0.868548570884299 Al
0.33333333333333565 0.6666666666666643 0.05469083943190191 Al
0.6666666666666642 0.3333333333333357 0.1494385524057917 Al
0.33333333333333565 0.6666666666666643 0.6494385524057918 Al
0.6751831417942601 0.8375915708970978 0.368548570884299 Al
0.6666666666666642 0.3333333333333357 0.5546908394319019 Al
0.16240842910283046 0.8375915708971694 0.368548570884299 Al
0.3248168582057399 0.1624084291029022 0.868548570884299 Al
0.8375915708970978 0.6751831417942602 0.868548570884299 Al
0.16240842910290218 0.3248168582057399 0.368548570884299 Al
0.659970484418812 0.8299847422093966 0.75914935419551 O
0.8299847422093963 0.6599704844188121 0.25914935419551 O
0.8299847422094107 0.17001525779058932 0.25914935419551 O
0.34002951558118794 0.1700152577906033 0.25914935419551 O
0.17001525779060328 0.340029515581188 0.75914935419551 O
0.17001525779058924 0.8299847422094109 0.75914935419551 O
0.9742086611612083 0.48710483058061094 0.9995969622851478 O
0.48710483058060183 0.5128951694193982 0.4995969622851477 O
0.5128951694193981 0.4871048305806019 0.9995969622851478 O
0.02579133883879168 0.5128951694193891 0.4995969622851477 O
0.4871048305806108 0.9742086611612084 0.4995969622851477 O
0.6666666666666642 0.3333333333333357 0.7586849827311364 O
0.0 0.0 0.9733519633362954 O
0.0 0.0 0.4733519633362959 O
0.512895169419389 0.025791338838791703 0.9995969622851478 O
0.33333333333333565 0.6666666666666643 0.2586849827311365 O
