System
1.0
6.964191731594021 -0.0 -0.2328973176792448
1.2e-15 7.480667499050395 5e-16
0.0072841932543588 0.0 6.359193770957517
Ca Cd N 
8 4 8 
direct
0.3586085729546315 0.3592350520352991 0.9170084461985003 Ca
0.6413914270453682 0.8592350520352997 0.5829915538014997 Ca
0.6413914270453682 0.6407649479647004 0.0829915538014997 Ca
0.3586085729546315 0.14076494796470074 0.41700844619850025 Ca
0.9739096502847235 0.1393416526903394 0.7490793023803167 Ca
0.0260903497152767 0.6393416526903396 0.7509206976196832 Ca
0.026090349715276698 0.8606583473096605 0.25092069761968344 Ca
0.9739096502847235 0.36065834730966073 0.2490793023803165 Ca
0.6800749876702934 0.0888660024076074 0.0808300978670714 Cd
0.3199250123297065 0.5888660024076076 0.4191699021329286 Cd
0.31992501232970644 0.9111339975923926 0.9191699021329287 Cd
0.6800749876702934 0.4111339975923928 0.5808300978670712 Cd
0.2633334055459409 0.866881130052158 0.571623128366459 N
0.7366665944540587 0.3668811300521579 0.9283768716335409 N
0.7366665944540587 0.133118869947842 0.4283768716335407 N
0.26333340554594087 0.6331188699478421 0.0716231283664591 N
0.18732228030944348 0.36249529485945853 0.5929126958537007 N
0.8126777196905565 0.8624952948594589 0.9070873041462992 N
0.8126777196905565 0.6375047051405413 0.40708730414629957 N
0.18732228030944348 0.1375047051405413 0.0929126958537006 N
