System
1.0
4.696550086493363 0.013896795901282 0.3275597918172695
0.9205605294852149 7.5990784282996025 0.9541468650062
0.0067373296467624 0.1808551804690811 11.410292849693972
H C S N 
14 18 4 2 
direct
0.550512278819996 0.04947476665700279 0.9404860473567711 H
0.8382587259348608 0.9262898007749182 0.3716912607024048 H
0.33825479774139855 0.9262884692966425 0.8716895152480959 H
0.525269199318251 0.47855061039702534 0.024248577264915406 H
0.28704190411090114 0.9925403783093097 0.6424116559840637 H
0.7870452218157681 0.9925377653674095 0.1424130687282571 H
0.7940128957962719 0.5367281625197087 0.2520269796411876 H
0.025271043320075588 0.47855117804848146 0.5242510059484754 H
0.45102080777691167 0.21483890292358374 0.4583091996973677 H
0.9510207588506167 0.21483519852042654 0.9583094273372479 H
0.39980578561032376 0.8045016647008107 0.18300254603858804 H
0.8998019437743385 0.8045010573903755 0.683001411657597 H
0.050517351007160594 0.049477144385185794 0.44048628921718497 H
0.29400934985328353 0.5367274606965741 0.7520254987465179 H
0.059489772836958985 0.10107978022852658 0.2495741509674402 C
0.04714562296519408 0.9783251453246182 0.3634918774725085 C
0.5471417402062713 0.9783237795494394 0.8634910281397224 C
0.7166290834293707 0.3111014653421632 0.5760947665530828 C
0.2166284446048267 0.31110062084188495 0.0760938090682293 C
0.2872037323909589 0.8267951860386072 0.367603371251194 C
0.7871999022497728 0.8267938704419817 0.86760232249555 C
0.559487243569957 0.10107961840867286 0.7495738704398134 C
0.6599727087820166 0.5717445801157114 0.432244511325503 C
0.9405605884107537 0.7550165544814547 0.7751681910852599 C
0.5213626593457356 0.20693448161253106 0.5478511879537648 C
0.02136300902571709 0.20693227431686056 0.0478511767501524 C
0.4405643914435585 0.7550174834104731 0.2751693529881338 C
0.43443878897076477 0.08849658484953649 0.6465131394675497 C
0.934440950563557 0.08849497313170737 0.1465137868143638 C
0.6510641882282022 0.6106470417474174 0.31162132800383374 C
0.15106046188200398 0.610646136248651 0.8116199503829932 C
0.15996926975998949 0.5717432765398351 0.93224312719856 C
0.90305878248381 0.7164494052196521 0.002195970673436203 S
0.4030623066238867 0.7164509951115196 0.5021971103177238 S
0.2809209309760035 0.2677738810464621 0.2268686910109892 S
0.7809200213628429 0.26777288469505284 0.7268697185932389 S
0.3407655628861598 0.4411177074381817 0.9992661980874878 N
0.8407677732715498 0.4411187138716079 0.4992678793907822 N
