System
1.0
8.514198680687619 -7.617635e-10 -3.0102241109300336
-4.257099341003515 7.373511805357432 -3.010224110930034
1.319413e-09 2.2852902e-09 9.030671340234063
Yb Sb O 
6 10 24 
direct
0.5 0.75 0.24999999999999992 Yb
0.25 0.5 0.75 Yb
0.24999999999999997 0.75 0.49999999999999994 Yb
0.7499999999999999 0.25 0.49999999999999994 Yb
0.7499999999999999 0.5 0.24999999999999997 Yb
0.5 0.25 0.7500000000000001 Yb
0.4999961689266084 0.4999961689266076 0.4999961689266078 Sb
9e-16 9e-16 0.5000038310733913 Sb
0.2518647312020584 0.2518647312020726 1.80539540221721e-14 Sb
4.875150688303375e-16 0.5000038310733917 8.667371711361982e-16 Sb
0.7481352687979415 0.7481352687979275 -1.8281714929426174e-14 Sb
0.2518647312020652 1.03e-14 0.2518647312020714 Sb
2.4189462131974427e-14 0.251864731202093 0.2518647312020854 Sb
0.5000038310733901 -3e-16 1.1416888679748004e-16 Sb
-2.4231943952534793e-14 0.7481352687979068 0.7481352687979147 Sb
0.7481352687979346 -1.03e-14 0.7481352687979287 Sb
-2.2106401362781095e-14 0.2177159355296426 0.4678801223632173 O
0.4678717409279382 0.4678717409279244 0.2501634020083349 O
0.25016340200832615 0.4678717409279006 0.4678717409279096 O
0.7822916610804072 0.5321282590720773 1.8378572703947243e-14 O
0.7822916610804138 9.6e-15 0.5321282590720768 O
0.21771593552967639 0.46788012236323123 -1.5947442255616802e-14 O
-2.311569454303733e-14 0.46788012236321064 0.21771593552965046 O
2.6405787436704195e-14 0.5321282590721004 0.7822916610804367 O
2.5536417435153746e-14 0.7822916610804455 0.5321282590720929 O
0.7822840644703329 0.2501641868335808 0.7822840644703398 O
0.2501641868335907 0.7822840644703588 0.7822840644703523 O
0.7498365979916221 0.2177083389195529 0.21770833891956076 O
0.4678801223632414 0.2177159355296603 -1.7918088124326455e-14 O
0.5321282590720726 1.2499999999999999e-14 0.7822916610804226 O
0.5321198776367615 0.7498358131664383 0.5321198776367658 O
0.532128259072065 0.7822916610804251 2.0357967691972098e-14 O
0.21770833891958258 0.749836597991634 0.21770833891957464 O
0.4678717409279307 0.250163402008344 0.4678717409279255 O
0.4678801223632344 -1.1099999999999998e-14 0.2177159355296625 O
0.2177083389195894 0.2177083389195735 0.749836597991626 O
0.2177159355296706 -8.1e-15 0.46788012236323123 O
0.7822840644703273 0.782284064470341 0.2501641868335875 O
0.5321198776367551 0.5321198776367669 0.7498358131664464 O
0.7498358131664544 0.5321198776367879 0.5321198776367799 O
