System
1.0
2.7742217680271413 4.091990874037701 0.0
-2.7742217680271413 4.091990874037701 0.0
0.0 0.0 6.570056620464362
Zn Se O 
2 2 8 
direct
0.0 0.0 0.0 Zn
0.0 0.0 0.5 Zn
0.3531179153337179 0.3531179153337179 0.25 Se
0.6468820846662822 0.6468820846662823 0.7500000000000001 Se
0.2770050063980228 0.7703338438884888 0.7500000000000001 O
0.22966615611151103 0.7229949936019775 0.25 O
0.2465188234628722 0.24651882346287218 0.0356989572496342 O
0.2465188234628722 0.24651882346287218 0.4643010427503658 O
0.7534811765371277 0.7534811765371277 0.535698957249634 O
0.7534811765371277 0.7534811765371277 0.964301042750366 O
0.7229949936019775 0.22966615611151103 0.25 O
0.7703338438884888 0.2770050063980228 0.7500000000000001 O
