System
1.0
-4.8984118411816855 -0.0239677073338377 -0.0317582919987064
1.710336671126782 4.742414130155761 0.0234612726457738
-0.0944740591936544 -1.3837940188276345 -6.694430069877855
Cr N 
4 8 
direct
0.20751584531650746 0.11026074352828737 0.9090926163105993 Cr
0.297372772306334 0.007705194459714924 0.4789245711182024 Cr
0.5093496412232605 0.6458862517550374 0.8060544626422635 Cr
0.7872808037618431 0.4202611526121003 0.19168980044321432 Cr
0.2320915397224081 0.2669949009124938 0.6744304274595595 N
0.4223700638415733 0.7983685983488116 0.5733048683841522 N
0.9811418287916908 0.7487941083166757 0.3184849252056022 N
0.8599707307881342 0.8263276190534021 0.7881069670428171 N
0.04515095863882252 0.23987998092261012 0.0964572037496326 N
0.5885131929224592 0.4274619632479771 0.983747744234439 N
0.3586164861465939 0.8519697527335331 0.9648374524562158 N
0.5753461365403646 0.21589073410936502 0.348798960953288 N
