System
1.0
-0.0 4.879210051175936 4.879210051175936
4.879210051175936 -0.0 4.879210051175936
4.879210051175936 4.879210051175936 -0.0
Ca Sn N F 
6 2 1 1 
direct
0.24147349895583956 0.7585265010441605 0.7585265010441605 Ca
0.24147349895583956 0.7585265010441605 0.24147349895583958 Ca
0.7585265010441605 0.24147349895583956 0.7585265010441608 Ca
0.7585265010441605 0.7585265010441605 0.24147349895583958 Ca
0.24147349895583956 0.2414734989558395 0.7585265010441606 Ca
0.7585265010441605 0.24147349895583956 0.24147349895583958 Ca
0.25000000000000006 0.25 0.25000000000000006 Sn
0.75 0.75 0.7500000000000001 Sn
0.0 0.0 0.0 N
0.5000000000000001 0.5 0.5000000000000001 F
