System
1.0
5.627351979759671 -0.0126675948148389 3e-16
-3.3833089271118713 5.1732412447327425 4e-16
0.0 -0.0 4.011078993269208
V Ni N 
2 4 6 
direct
4.045897523837225e-14 0.6828696432196154 0.42868883075570446 V
-4.05009044973092e-14 0.3171303567803845 0.9286888307557041 V
0.30185596388275915 0.30249041554726425 0.4286123996683379 Ni
0.6981440361172653 0.0006344516645186996 0.4286123996683379 Ni
0.6981440361172407 0.6975095844527359 0.9286123996683373 Ni
0.30185596388273433 0.9993655483354815 0.9286123996683373 Ni
0.3396987126357623 0.3331365200527643 0.9286880241956234 N
0.6603012873642103 0.9934368074169633 0.9286880241956234 N
0.6603012873642375 0.6668634799472358 0.428688024195623 N
0.3396987126357898 0.006563192583036299 0.428688024195623 N
-4.3803047995237003e-14 0.6361869319395289 0.9287093215163724 N
4.378788438068207e-14 0.36381306806047037 0.4287093215163725 N
