System
1.0
-0.0 0.0 3.2470674612716692
3.9161023436048246 0.0 -0.0
0.0 3.9161023436048246 0.0
Ce Cu N 
1 1 2 
direct
0.5 0.5 0.5 Ce
0.0 0.0 0.0 Cu
0.0 0.5 0.0 N
0.0 0.0 0.5 N
