System
1.0
3.5388419424587716 -0.1551441667339386 -0.5010066144107325
-1.557161269979935 -4.7013486483452365 0.4813178723163533
1.4280010508270717 0.2850899761799842 -4.801922893951402
Bi O 
2 2 
direct
-0.008284010877750199 0.0558056116339364 0.0743765673146534 Bi
0.2419099087610866 0.5124317311504084 0.5263434712967444 Bi
0.9340819160591448 0.6365730367293998 0.21887158991183628 O
0.5153185279802301 0.21275365002091542 0.6482485610329934 O
