System
1.0
6.590071858737138 -3.1007762e-09 -3.630142733106013
-1.9996646576255483 6.279362483236102 -3.630142721380513
-0.0508055271774386 -0.0694992491379452 7.704567768630823
Ba Mo P O 
1 4 2 16 
direct
0.0 0.0 0.0 Ba
0.24627609368415448 0.4915126648797777 0.7377887585676373 Mo
0.7537239063156946 0.7537239063201331 0.2622112414317397 Mo
0.4915126648842278 0.24627609368004308 0.7377887585682916 Mo
0.5084873351159228 0.5084873351200455 0.2622112414323307 Mo
0.5 -4.5159842752622286e-20 -1.5048587690925787e-18 P
-8.957724379546849e-19 0.4999999999999999 -2.926043438472149e-17 P
0.03475474183387483 0.5464017581009205 0.8414865956536605 O
0.2836345820798937 0.283634582075338 0.8258341917878035 O
0.3595974439467342 0.076239315996318 0.4358367599378132 O
0.45780039029580083 0.7163654179204486 0.17416580821174832 O
0.7049151624474843 0.9652452581674579 0.1585134043425875 O
0.7163654179204859 0.4578003902970983 0.1741658082209342 O
0.9652452581660744 0.7049151624495507 0.15851340434510677 O
0.806730853820576 0.29508483755303566 0.8414865956552021 O
0.2950848375519345 0.806730853820812 0.8414865956513873 O
0.9237606840105446 0.9237606840046444 0.5641632400623308 O
0.5464017581025208 0.03475474183313959 0.8414865956574757 O
0.542199609703819 0.542199609707115 0.8258341917795138 O
0.19326914617947422 0.453598241896493 0.1585134043460308 O
0.07623931598894139 0.35959744395290966 0.4358367599348598 O
0.4535982418980599 0.1932691461785905 0.1585134043485499 O
0.6404025560537797 0.6404025560461277 0.5641632400649955 O
