System
1.0
5.927412255690326 -0.0004493303494465 -0.0
-2.9500575479701205 5.125834873174325 0.0
0.0 -0.0 5.499476179872854
Al In N 
2 4 6 
direct
-7.394995427542556e-17 0.6587460482173368 0.48938185039532023 Al
1.501176141569476e-18 0.3412539517826628 0.9893818503953201 Al
0.3238436862125378 0.3353285215614317 0.4874922182044653 In
0.676156313787467 0.011483835348904 0.4874922182044653 In
0.6761563137874623 0.6646714784385686 0.9874922182044652 In
0.323843686212533 0.9885161646510959 0.9874922182044652 In
0.3020022526648597 0.3329762370451801 0.8852292870325251 N
0.697997747335147 0.0309739843803332 0.8852292870325251 N
0.6979977473351402 0.6670237629548196 0.3852292870325249 N
0.30200225266485303 0.9690260156196665 0.3852292870325249 N
-4.18840433744238e-15 0.6315952616215323 0.8371751391307086 N
4.069615062966137e-15 0.3684047383784675 0.337175139130709 N
