System
1.0
3.786259614838944 -0.0 -0.0
0.0 3.786259614838944 -0.0
0.0 0.0 3.786259614838944
Mn Zn N 
3 1 1 
direct
0.0 0.0 0.5 Mn
0.0 0.5 0.0 Mn
0.5 0.0 0.0 Mn
0.5 0.5 0.5 Zn
0.0 0.0 0.0 N
