System
1.0
4.595292380952596 -5.145449e-09 2.6530929819696647
1.531763783948514 4.33248241067544 2.6530929819696647
-0.0 -0.0 5.306185963939329
Ga Fe N 
1 7 2 
direct
0.0 0.0 0.0 Ga
0.5 0.0 -2.826977484539546e-17 Fe
-1.906425568728967e-18 0.5 0.49999999999999994 Fe
0.0 0.0 0.5 Fe
0.5 0.5 -1.0283984595330886e-18 Fe
-1.906425568728967e-18 0.5 -5.141992297665443e-19 Fe
0.5 0.0 0.4999999999999999 Fe
0.5 0.5 0.5 Fe
0.25 0.25 0.25 N
0.7500000000000001 0.75 0.7499999999999999 N
