System
1.0
1.9410680347952212 -3.3620281879924345 0.0
1.9410680347952212 3.3620281879924345 -0.0
1e-16 -0.0 6.579099073174677
Ca N 
3 2 
direct
0.0 0.0 0.0 Ca
0.6666669999999968 0.33333300000000327 0.6605079028698368 Ca
0.33333300000000327 0.6666669999999968 0.3394920971301634 Ca
0.6666669999999968 0.33333300000000327 0.23576055675714788 N
0.33333300000000327 0.6666669999999968 0.764239443242852 N
