System
1.0
3.9793997181360834 0.0391622424468585 0.2814562749871519
-0.8438875198668239 3.869634291310466 -0.1933309648671286
0.6717320645082316 -0.0601525710898348 7.762559712390735
Cd H C O 
1 4 4 4 
direct
0.8096364804659683 0.2658588414809426 0.2614064784450954 Cd
0.527550585069149 0.0818575435390703 0.665317243141881 H
0.06668044524062516 -0.0177195876863295 0.709303926543215 H
0.552565825225014 0.5493234513712137 0.8134979718600905 H
0.09169630211061691 0.4498645481360095 0.8575205798737406 H
0.2827593353271163 0.6537947512811448 0.5168139836067291 C
0.30120709395053186 0.8721918220723773 0.6840948581523546 C
0.3180808565233331 0.659482956954356 0.8387156333129558 C
0.336673837785418 0.8778822329197992 0.005991517923608396 C
0.5225443130654446 0.7246123082014616 0.3870462128103311 O
0.02719960844888898 0.4024647457226688 0.5116720944047817 O
0.592308548440546 0.1291600680942821 0.011084327797492499 O
0.09698776834734307 0.8071013179130024 0.1358031721277324 O
