System
1.0
5.441950365878466 -0.0064749358326722 -1.3510694823863885
-1.0117994658172367 5.34706687646823 -1.3510694952413638
0.0199078441189241 0.0240000602863712 10.163432538723963
V Zn O 
4 4 14 
direct
0.7936844326653683 0.7983253399345355 0.7946554060000691 V
0.2016746600653458 0.2063155673405321 0.7053445939987822 V
0.2063155673346324 0.20167466006546456 0.2053445939999316 V
0.7983253399346539 0.7936844326594671 0.2946554060012179 V
0.7250901616910388 0.3700085440217121 0.4809758791216011 Zn
0.27491083830895885 0.6299914559782883 0.5190241208783988 Zn
0.3700085440178295 0.7250901616799821 0.9809758791223014 Zn
0.6299914559821712 0.27491083832001534 0.019024120877698364 Zn
0.5777057990309301 0.6207607344596775 0.138662914782119 O
0.37923926553522147 0.42229420096889486 0.3613370852197819 O
0.42229420096907017 0.3792392655403229 0.8613370852178803 O
0.6768209213335062 0.0121314745255286 0.3897101725335374 O
0.9466903150560615 0.05330968495320659 0.7500000000023643 O
0.5979932408426257 0.9098794658207935 0.893743459964683 O
0.09012053417430088 0.4020067591503768 0.6062565400372439 O
0.40200675915737427 0.09012053417920668 0.10625654003531679 O
0.9098794658256992 0.5979932408496225 0.3937434599627563 O
0.012131474528604677 0.6768209213278079 0.8897101725309979 O
0.3231790786664937 0.9878685254744715 0.6102898274664624 O
0.9878685254713953 0.3231790786721922 0.11028982746900189 O
0.05330968494393835 0.9466903150467937 0.2499999999976364 O
0.6207607344647784 0.5777057990311049 0.6386629147802179 O
