System
1.0
4.738770095302353 -0.0027096187120401 0.360462135001935
0.3793372925107795 -3.6024321334088443 -0.1252542808860672
-1.101490999939049 -3.3596485706004526 -5.9215895122875395
N Cl 
1 3 
direct
0.5492904435647626 0.7396790571347711 0.5471186211987482 N
0.020346201930832197 0.760044055364793 0.011545756841906693 Cl
0.2444624166156853 0.6046048789995396 0.5837891424345611 Cl
0.6785820901028725 0.5462659816455759 0.13004895968643249 Cl
