System
1.0
4.934097129939219 0.0050868018533283 -1.011354592477618
-1.832267735883538 4.594187108740883 -0.9510099955196131
0.0033160548077639 -0.0090910999710525 8.806336865177347
P N 
6 10 
direct
0.23150280808268436 0.48150280808265333 0.7499999999999907 P
0.37489210310260007 0.6619628761954748 0.444280274380748 P
0.28231839818520577 0.06938817127809078 0.9442802743807547 P
0.6251078968974004 0.33803712380452505 0.5557197256192521 P
0.7176816018147939 0.9306118287219094 0.05571972561924558 P
0.7684971919173157 0.5184971919173463 0.2500000000000092 P
0.6123782923214183 0.5008822950966908 0.40059661023518484 N
0.2999824255080322 0.22757942207254597 0.8073206262932497 N
0.3876217076785818 0.49911770490330887 0.5994033897648151 N
0.6002856848614537 0.21178268208618048 0.09940338976480878 N
0.9202587957793397 0.4926617992148027 0.692679373706751 N
0.7000175744919678 0.7724205779274538 0.19267937370675048 N
0.5 -2.390254738859865e-20 0.5 N
0.39971431513854605 0.7882173179138197 0.9005966102351911 N
0.07974120422066007 0.5073382007851973 0.30732062629324886 N
0.0 0.0 0.0 N
