System
1.0
5.626484754792522 -0.0460141293393902 0.9788530420014822
1.4250642603876194 5.443219098164623 0.9788530307202884
0.2154760008427257 0.164923783397151 8.279656813223177
As C N 
2 6 6 
direct
0.4504035976826857 0.13906654344959657 0.732517243428945 As
0.8609334561075866 0.5495964020290856 0.2674827560538053 As
0.9196830292668756 0.8835463607358817 0.2501333924282892 C
0.474470800382749 0.9504461452116181 -0.03885515703259552 C
0.04955385434268632 0.5255291999254963 0.03885515739935721 C
0.1164536382551264 0.08031697139480005 0.7498666072724107 C
0.18076883939182137 0.40804160043727533 0.35391650349510506 C
0.591958399645217 0.8192311605066694 0.6460834960420517 C
0.1565039149478252 0.48969095992885286 0.9081458716401128 N
-0.08288673214364452 0.06405328683519709 0.753210997207085 N
0.5103090410466867 0.8434960848116441 0.09185412969621104 N
0.35587538773777344 0.30797394143098766 0.41435158063071886 N
0.9359467145756614 0.08288672075579559 0.2467890025797378 N
0.6920260587609361 0.6441246125471061 0.5856484191587662 N
