System
1.0
6.507497155547801 -0.0193147125892422 -0.014678574197608
-0.0218840627243021 8.132405614223066 2.0811274319741995
-0.0318112258040243 -0.0104540684090008 8.394431028508018
Pr Se N 
8 6 4 
direct
0.9697232951138024 0.3082469164299146 0.9427165412351713 Pr
0.030276704886197797 0.6917530835700852 0.05728345876482849 Pr
0.4697232951135104 0.9427165412351846 0.308246916429839 Pr
0.9299455463699818 0.7451003895846957 0.5842724078214805 Pr
0.5700544536297807 0.41572759217849536 0.2548996104152634 Pr
0.0700544536300182 0.25489961041530407 0.41572759217852007 Pr
0.4299455463702192 0.5842724078215046 0.7451003895847369 Pr
0.5302767048864895 0.057283458764815304 0.691753083570161 Pr
0.4653913668980763 0.24545219646823774 0.9841941638674601 Se
0.25000000000009875 0.5963168668926756 0.4036831331073519 Se
0.5346086331019232 0.7545478035317621 0.01580583613253986 Se
0.7499999999999009 0.4036831331073242 0.5963168668926481 Se
0.9653913668979077 0.9841941638674125 0.245452196468209 Se
0.03460863310209209 0.0158058361325877 0.7545478035317909 Se
0.9149036798737816 0.41833531454624723 0.17046127368511246 N
0.41490367987369636 0.17046127368514544 0.4183353145462276 N
0.08509632012621837 0.5816646854537525 0.8295387263148877 N
0.5850963201263035 0.8295387263148544 0.5816646854537726 N
