System
1.0
0.0 -4.259528496633272 4.259528496633272
-4.259528496633272 4.259528496633272 -0.0
-0.0 -4.259528496633272 -4.259528496633272
Na Cr H N F 
1 1 8 2 6 
direct
0.5 0.0 0.5 Na
0.0 0.0 0.0 Cr
0.18009003492736975 0.6398199301452533 0.8199109650726273 H
0.45972989521788343 0.6398199301452533 0.8199109650726273 H
0.18009003492736977 0.3601810698547442 0.5402711047821211 H
0.18009003492736975 0.3601810698547442 0.8199109650726273 H
0.8199109650726273 0.6398199301452533 0.18009003492736975 H
0.8199109650726274 0.3601810698547442 0.18009003492736986 H
0.5402711047821211 0.3601810698547442 0.1800900349273698 H
0.8199109650726273 0.6398199301452533 0.4597298952178834 H
0.75 0.5 0.25 N
0.25 0.5 0.75 N
0.773853342838774 0.0 0.773853342838774 F
0.2261456571612281 0.0 0.2261456571612281 F
0.2261456571612281 0.4522923143224537 0.2261456571612281 F
0.7738533428387739 0.0 0.22614765716123017 F
0.22614765716123023 0.0 0.7738533428387742 F
0.773853342838774 0.5477056856775446 0.773853342838774 F
