System
1.0
0.0 5.266925257911141 5.266925257911141
5.266925257911141 -0.0 5.266925257911141
5.266925257911141 5.266925257911141 0.0
Sr In N F 
6 2 1 1 
direct
0.24152251688615367 0.7584774831138463 0.7584774831138463 Sr
0.24152251688615373 0.7584774831138463 0.24152251688615367 Sr
0.7584774831138464 0.24152251688615362 0.7584774831138463 Sr
0.7584774831138463 0.7584774831138463 0.24152251688615364 Sr
0.2415225168861537 0.2415225168861537 0.7584774831138463 Sr
0.7584774831138463 0.24152251688615367 0.24152251688615367 Sr
0.25 0.25 0.25 In
0.75 0.75 0.75 In
0.0 0.0 0.0 N
0.5 0.5 0.5 F
