System
1.0
9.024377745758091 0.0 -0.0
-4.512188872879046 7.8153401148558155 -0.0
0.0 -0.0 11.498846206484219
In H C N O 
3 24 12 3 30 
direct
0.5 0.0 0.0 In
-1.083931363509043e-17 0.5 0.6666669999999968 In
0.5 0.5 0.3333330000000032 In
0.6409423592931605 0.8998013761831479 0.48759234128031154 H
0.1037164434826163 0.025671758835956397 0.3857613224916547 H
0.8962835565173835 0.9743282411640436 0.3857613224916547 H
0.07804467464665182 0.9743282411640436 0.6142386775083456 H
0.10371644348265359 0.07804467464660099 0.9475716775083488 H
0.741140983110005 0.1001986238168518 0.5124076587196885 H
0.0780446746465637 0.10371644348256528 0.719095322491648 H
0.35905764070683976 0.1001986238168518 0.48759234128031154 H
0.35905764070698193 0.2588590168899932 0.8457406587196845 H
0.9743282411640062 0.8962835565174344 0.2809046775083517 H
0.7411409831101492 0.6409423592931618 0.8209253412803147 H
0.6409423592930172 0.7411409831100068 0.8457406587196845 H
0.8998013761830035 0.2588590168899932 0.1542593412803157 H
0.10019862381699439 0.3590576407068376 0.179074658719685 H
0.9219553253534359 0.8962835565174344 0.719095322491648 H
0.10019862381699614 0.7411409831100068 0.1542593412803157 H
0.025671758836044663 0.9219553253533994 0.05242832249165139 H
0.9743282411639556 0.07804467464660099 0.05242832249165139 H
0.0256717588359938 0.10371644348256528 0.2809046775083517 H
0.2588590168898505 0.3590576407068376 0.8209253412803147 H
0.9219553253533477 0.025671758835956397 0.6142386775083456 H
0.25885901688999496 0.8998013761831479 0.5124076587196885 H
0.8962835565173458 0.9219553253533994 0.9475716775083488 H
0.8998013761830052 0.6409423592931618 0.179074658719685 H
0.5773579965247517 0.7886790032622878 0.16666699999999676 C
0.6894361564517608 0.378872312903521 0.49999999999999994 C
0.42264200347524755 0.2113209967377124 0.16666699999999676 C
0.6211276870964688 0.3105638435482394 0.16666699999999676 C
0.3105638435482299 0.6894361564517609 0.8333330000000032 C
0.6894361564517704 0.3105638435482394 0.8333330000000032 C
0.7886790032624655 0.2113209967377124 0.8333330000000032 C
0.7886790032622878 0.5773579965245741 0.49999999999999994 C
0.37887231290353074 0.6894361564517609 0.16666699999999676 C
0.3105638435482394 0.6211276870964788 0.49999999999999994 C
0.2113209967375344 0.7886790032622878 0.8333330000000032 C
0.2113209967377124 0.4226420034754256 0.49999999999999994 C
0.0 0.0 0.6666669999999968 N
0.0 0.0 0.3333330000000032 N
0.0 0.0 0.0 N
0.2687697729267221 0.3461586188784163 0.43903665048560503 O
0.6538413811217016 0.9226111540480683 0.1057036504856019 O
0.2687697729263735 0.9226111540480683 0.8942963495143982 O
0.44937229541734786 0.6939281352336544 0.4434537840787726 O
0.6939281352335893 0.4493722954172301 0.22321321592122387 O
0.9226111540484168 0.2687697729264913 0.772369650485601 O
-3.9712657875206455e-14 0.7553748450181266 0.16666699999999676 O
0.7554441601836933 0.30607186476634535 0.5565462159212269 O
0.0773888459517011 0.3461586188784163 0.560963349514395 O
0.3461586188782982 0.0773888459519319 0.1057036504856019 O
0.3060718647662929 0.755444160183576 0.1101207840787768 O
0.7554441601836407 0.4493722954172301 0.7767867840787762 O
0.755374845018206 0.0 0.49999999999999994 O
0.9226111540482991 0.6538413811215836 0.560963349514395 O
0.755374845018166 0.7553748450181266 0.8333330000000032 O
0.2446251549818337 0.2446251549818733 0.8333330000000032 O
0.7312302270736265 0.0773888459519319 0.8942963495143982 O
0.4493722954172826 0.755444160183576 0.889879215921223 O
3.9689339733662684e-14 0.2446251549818733 0.16666699999999676 O
0.7312302270732775 0.6538413811215836 0.43903665048560503 O
0.2445558398163591 0.55062770458277 0.7767867840787762 O
0.5506277045827173 0.2445558398164243 0.889879215921223 O
0.244625154981794 0.0 0.49999999999999994 O
0.3461586188780675 0.2687697729264913 0.22763034951439878 O
0.5506277045826526 0.30607186476634535 0.4434537840787726 O
0.07738884595158321 0.7312302270735083 0.772369650485601 O
0.2445558398163069 0.6939281352336544 0.5565462159212269 O
0.6538413811219324 0.7312302270735083 0.22763034951439878 O
0.6939281352337074 0.2445558398164243 0.1101207840787768 O
0.3060718647664105 0.55062770458277 0.22321321592122387 O
