System
1.0
2.6111661670997295 4.617393172460762 -0.4963584942125265
-2.6432617795330056 4.623500518610685 0.3850702136347215
-0.1164151071310666 -0.0204465352690205 9.430297969227919
Mg Si H O 
3 4 2 12 
direct
0.0 0.0 0.0 Mg
0.6666497799838399 0.6668690240260496 0.00022467742819740159 Mg
0.3333502200161602 0.33313097597395075 0.9997753225718022 Mg
0.23608172245859468 0.7546756978312965 0.7044742125627971 Si
0.7639182775414061 0.2453243021687033 0.2955257874372031 Si
0.9019627628556603 0.4218344146903613 0.7044723529239653 Si
0.09803723714434022 0.5781655853096389 0.2955276470760356 Si
0.595993278753741 0.06560673303820974 0.7809189804083018 H
0.40400672124625947 0.9343932669617897 0.21908101959169818 H
0.45081059458692396 0.3600922675554943 0.355700885958845 O
0.5491894054130756 0.6399077324445062 0.644299114041155 O
0.9846020710116101 0.8944478592802777 0.3532760376306907 O
0.01539792898838941 0.10555214071972209 0.6467239623693094 O
0.9155733643093728 0.42889942489159355 0.3534437152347362 O
0.7049896714545009 0.298532835507705 0.11884086011552589 O
0.040516243652302844 0.6304216396237105 0.1188084172025467 O
0.9594837563476969 0.3695783603762898 0.8811915827974535 O
0.6293563114419803 0.03380079515122138 0.885838611039017 O
0.29501032854549963 0.7014671644922948 0.8811591398844738 O
0.08442663569062783 0.5711005751084066 0.646556284765264 O
0.3706436885580196 0.9661992048487785 0.11416138896098262 O
