System
1.0
6.451280737998787 0.0217363398747934 2.8714720915479983
3.9178667762172656 5.125408818109857 2.8714720915479983
0.0185784712983606 0.0092221745765513 7.385748233854459
B H Pb O 
2 2 4 8 
direct
0.3290018297988795 0.32900182979887943 0.6555192635405332 B
0.6709981702011207 0.6709981702011205 0.34448073645946725 B
0.46018200703427237 0.4601820070342723 0.3774588098019612 H
0.5398179929657281 0.5398179929657281 0.6225411901980378 H
0.05273569428615441 0.05273569428615439 0.7315357549620348 Pb
0.947264305713846 0.9472643057138458 0.2684642450379646 Pb
0.6588644131269056 0.6588644131269056 0.9206239904608171 Pb
0.3411355868730943 0.3411355868730943 0.0793760095391828 Pb
0.4081361236900213 0.4081361236900211 0.7323076142603506 O
0.5918638763099795 0.5918638763099793 0.2676923857396494 O
0.3710114775172573 0.3710114775172573 0.4429803611622511 O
0.6289885224827427 0.6289885224827427 0.5570196388377484 O
0.21309628500177735 0.21309628500177727 0.7816907355423047 O
0.7869037149982231 0.7869037149982229 0.2183092644576949 O
0.7448103256055222 0.25518967439447765 2.4240687334499484e-17 O
0.25518967439447765 0.7448103256055223 2.4240687334499484e-17 O
