System
1.0
6.082345706934634 -0.0591940966355386 -2.2150765224071804
-3.0845982745117215 5.311953185880856 -2.042891665923492
-0.0343734531196656 0.0591941106508142 6.473044714247149
P H N O 
2 12 2 8 
direct
0.5 0.7499999999999999 0.24999999999999992 P
0.0 0.0 0.0 P
0.10171515274904855 0.7267151527476483 0.12499999999852529 H
0.8982848472509517 0.023284847252351696 0.6250000000014748 H
0.601715152748949 0.8750000000020131 0.9767151527510368 H
0.1328650258907665 0.5950007408572245 0.6919471046112358 H
0.36713497410927454 0.21213571496640984 0.8090820787202435 H
0.0969463637539199 0.5378642850315939 0.4049992591410461 H
0.3982848472510507 0.3749999999979869 0.2732848472489629 H
0.6328650258907121 0.44194710461357956 0.8450007408596688 H
0.9030536362460936 0.3080528953884168 0.4409179212790412 H
0.5969463637540969 0.1549992591419661 0.7878642850326445 H
0.40305363624591634 0.1909179212780445 0.5580528953874424 H
0.8671349741092202 0.5590820787227643 0.4621357149686766 H
0.5 0.24999999999999997 0.7499999999999999 N
2.0671721743904993e-17 0.5 0.49999999999999994 N
0.9362846052599769 0.7355947803367444 0.973574319423268 O
0.4362846052599056 0.7235743194235816 0.9855947803366482 O
0.06371539473997719 0.0372897141634528 0.7993111750766664 O
0.762021460913162 0.0264256805767183 0.9627102858368898 O
0.23797853908688338 0.20068882492308673 0.2644052196631723 O
0.26202146091331296 0.7127102858363623 0.27642568057637895 O
0.7379785390867327 0.01440521966344 0.4506888249236856 O
0.5637153947400492 0.5493111750766128 0.28728971416329 O
