System
1.0
5.870909262135511 0.0488204238987442 0.0345216081482784
2.9777348202507956 5.059946129059559 0.0345215991572283
2.9777348188791173 1.7191963029905273 4.75905592834689
Li Cr Cu O 
2 3 1 8 
direct
0.1239750642192154 0.12397506421991888 0.1239750642209634 Li
0.8760249357807846 0.8760249357800811 0.8760249357790365 Li
-1.6527301157573315e-17 0.49999999999999994 0.49999999999999994 Cr
0.49999999999999994 3.81576442449078e-17 0.49999999999999994 Cr
0.49999999999999994 0.49999999999999994 7.119502674023409e-19 Cr
0.4999999999999999 0.5 0.5 Cu
0.26181005201216573 0.2618100520094159 0.2618100520053516 O
0.25301846029202313 0.2530184602955401 0.7115829379269593 O
0.253018460291824 0.7115829379254885 0.2530184602976505 O
0.7115829379264478 0.2530184602932522 0.2530184602955615 O
0.2884170620735524 0.746981539706748 0.7469815397044386 O
0.7469815397081763 0.2884170620745117 0.7469815397023496 O
0.7469815397079772 0.7469815397044599 0.2884170620730408 O
0.7381899479878344 0.7381899479905841 0.7381899479946484 O
