System
1.0
6.5577644244205935 0.000367866673244 -0.063309685466316
-0.0639273637221532 6.557452932849377 -0.0633096863199581
0.0003641211424591 0.0003678663503734 6.558069841027129
Ca Pd O 
8 2 12 
direct
0.6165526138923616 0.8834473861076616 0.2500000000000084 Ca
0.24999999999997577 0.6165526138923229 0.8834473861076386 Ca
0.8834473861076623 0.2500000000000159 0.616552613892353 Ca
0.3834473861076381 0.11655261389233863 0.7499999999999917 Ca
0.750000000000024 0.3834473861076773 0.11655261389236159 Ca
0.1165526138923375 0.7499999999999845 0.38344738610764667 Ca
0.7499999999999999 0.7500000000000001 0.7499999999999999 Ca
0.24999999999999994 0.25000000000000006 0.25 Ca
0.4999999999999999 0.5000000000000001 0.5 Pd
0.0 0.0 0.0 Pd
0.0710493498199909 0.297453757120448 0.945597271786221 O
0.7974537571203686 0.5710493498199739 0.4455972717861492 O
0.5544027282137879 0.2025462428795003 0.428950650180012 O
0.4289506501800495 0.5544027282137793 0.20254624287977097 O
0.20254624287963158 0.42895065018002654 0.5544027282138507 O
0.7025462428795822 0.054402728213761305 0.9289506501800864 O
0.9289506501800088 0.7025462428795519 0.05440272821377899 O
0.0544027282138778 0.9289506501799929 0.7025462428797686 O
0.445597271786212 0.7974537571204998 0.5710493498199881 O
0.5710493498199503 0.4455972717862208 0.7974537571202291 O
0.9455972717861221 0.0710493498200072 0.2974537571202314 O
0.2974537571204175 0.9455972717862388 0.0710493498199138 O
