System
1.0
1.778065869542934 -3.0797003493718593 -0.0
1.778065869542934 3.0797003493718593 0.0
-0.0 0.0 5.719200694594465
Lu O 
2 3 
direct
0.6666669999999968 0.33333300000000327 0.24940191887661647 Lu
0.3333330000000032 0.6666669999999968 0.7505980811233833 Lu
0.6666669999999968 0.33333300000000327 0.646198045307783 O
0.3333330000000032 0.6666669999999968 0.3538019546922169 O
0.0 0.0 0.0 O
