System
1.0
5.983885736431976 -5.84582e-11 -0.0
-2.991942863317394 5.182197443979261 0.0
-0.0 0.0 15.015355112260881
Ba Nb Ir Cl O 
6 2 1 2 12 
direct
0.3333330000000032 0.6666669999999968 0.36637807849174 Ba
0.3333330000000032 0.6666669999999968 0.7906529216815564 Ba
0.6666669999999968 0.3333330000000032 0.6336219215082597 Ba
0.6666669999999968 0.3333330000000032 0.9285165752904193 Ba
0.3333330000000032 0.6666669999999968 0.0714834247095806 Ba
0.6666669999999968 0.3333330000000032 0.2093470783184439 Ba
0.0 0.0 0.8139129902791634 Nb
0.0 0.0 0.18608700972083636 Nb
0.0 0.0 0.0 Ir
0.6666669999999968 0.3333330000000032 0.4196724506089193 Cl
0.3333330000000032 0.6666669999999968 0.5803275493910808 Cl
0.6892057191778602 0.8446028545887206 0.9171284854292824 O
0.8446028545891384 0.1553971454112734 0.0828715145707173 O
0.3107942808221397 0.1553971454112795 0.0828715145707173 O
0.1639707400327696 0.8360292599666416 0.24240605002376 O
0.8446028545887206 0.6892057191774479 0.0828715145707173 O
0.1553971454112795 0.3107942808225521 0.9171284854292824 O
0.8360292599666329 0.6720585299332751 0.7575939499762402 O
0.1639707400333672 0.3279414700667249 0.24240605002376 O
0.3279414700661359 0.1639707400333672 0.7575939499762402 O
0.6720585299338641 0.836029259966633 0.24240605002376 O
0.8360292599672307 0.1639707400333586 0.7575939499762402 O
0.15539714541086105 0.8446028545887266 0.9171284854292824 O
