System
1.0
4.663458210936177 0.126569896383764 -0.0014726513018057
-0.4128419505223815 4.6468784640883625 0.0014790713867328
0.0019398898363019 -0.0017357793758309 5.798012559269536
V O F 
4 6 2 
direct
-7.010733551999699e-07 -1.2124299299996755e-08 0.4999994171998348 V
-6.059969243000001e-07 -4.837728784e-07 8.212446389999999e-07 V
0.5380712246631597 0.46192832098693687 0.2499980235157104 V
0.4619288538816128 0.5380716580244456 0.7500018834529834 V
0.1947453524917796 0.8052557288730775 0.750002945545371 O
0.8052554631744792 0.19474270836602053 0.2499960263185575 O
0.3017606085089453 0.3017611741119665 5.853574929999472e-08 O
0.3017589805375892 0.3017597935296197 0.5000002057515414 O
0.6982400277503695 0.6982383297210359 1.824237267999602e-07 O
0.698241163131214 0.6982397902794617 0.4999999900362179 O
0.20528855681690117 0.7947133538693574 0.2500028954923108 F
0.7947110761142284 0.2052876381352549 0.7499975504833644 F
