System
1.0
5.166001892910034 -0.0426895463501055 2.7793473591526134
1.6415698164411818 4.898433888368466 2.7793473611145836
-0.059848386616508 -0.0426895457983731 5.8658986114811995
K Sn O 
2 2 3 
direct
0.5 0.4999999999999999 0.49999999999999994 K
0.0 0.0 0.0 K
0.2443107781161624 0.2443107781199943 0.24431077811691185 Sn
0.7556892218838374 0.7556892218800059 0.7556892218830882 Sn
-7.153958546599337e-18 0.5 -1.2057114479975194e-17 O
1.4976792862750336e-19 -2.3890739311547462e-19 0.49999999999999994 O
0.5 4.503265309059132e-19 1.569846113565372e-17 O
