System
1.0
7.082243543771019 0.0334086267823986 4e-16
-4.829509964106849 5.180262855900506 4e-16
0.0 -0.0 5.671779958286486
Te Pb Br O 
1 3 2 4 
direct
0.81534971369802 0.18465028630198027 0.0 Te
0.14185409293614773 0.858145907063852 0.0 Pb
0.6459288724088318 0.35407112759116827 0.5 Pb
0.35335733235408556 0.6466426676459145 0.5 Pb
0.4927871473861254 0.5072128526138744 0.0 Br
0.002480885447306737 0.9975191145526933 0.5 Br
0.9835553922978791 0.4795699144131402 0.7677071604201949 O
0.5204300855868603 0.0164446077021206 0.232292839579805 O
0.5204300855868603 0.0164446077021206 0.7677071604201949 O
0.9835553922978791 0.4795699144131402 0.232292839579805 O
