System
1.0
6.193062497204023 -0.0 3.5755662845598986
2.0643541657346742 5.838875712955053 3.5755662845598986
0.0 -0.0 7.151132569119797
Er Ru O 
4 4 14 
direct
0.5000000000000001 0.5 0.5 Er
9.33631612255796e-19 0.5 0.5 Er
0.5 0.0 0.5 Er
0.5000000000000001 0.5 1.1758635285677858e-17 Er
0.0 0.0 0.0 Ru
0.0 0.0 0.5 Ru
0.5 0.0 -4.96318335884189e-17 Ru
9.33631612255796e-19 0.5 5.879317642838929e-18 Ru
0.08637140397272274 0.6636285960273384 0.08637140397272848 O
0.6636285960272773 0.0863714039726617 0.6636285960272715 O
0.6636285960272773 0.0863714039726617 0.08637140397278942 O
0.6250000000000001 0.625 0.6249999999999998 O
0.9136285960272774 0.3363714039726617 0.3363714039727894 O
0.3363714039727227 0.9136285960273385 0.33637140397272836 O
0.3363714039727836 0.3363714039726617 0.9136285960272771 O
0.9136285960272164 0.9136285960273385 0.33637140397272247 O
0.9136285960272774 0.3363714039726617 0.9136285960272718 O
0.08637140397272274 0.6636285960273384 0.6636285960272106 O
0.3363714039727227 0.9136285960273385 0.9136285960272104 O
0.375 0.375 0.37499999999999994 O
0.6636285960272162 0.6636285960273384 0.08637140397272279 O
0.08637140397278371 0.0863714039726617 0.6636285960272772 O
