System
1.0
4.465804342229103 0.0117053114901646 0.0240194611424667
0.0168421186560063 5.275527961631052 -0.6524253005114562
-0.0622470826348134 0.0502889853800822 9.890723144724852
Li Co O F 
2 6 4 12 
direct
-2.0185888397e-05 3.4354951155e-06 3.823746810400001e-06 Li
0.49998274985465874 -1.76018205890007e-05 0.4999933474948898 Li
0.4999978395669988 0.4999932169575161 -1.088115218191063e-06 Co
1.707641522100432e-06 0.5000100729076028 0.5000011095521267 Co
0.017898583620477398 0.2708911189916511 0.7552447780758395 Co
0.982103304398811 0.7291091285010153 0.2447521996945071 Co
0.48301943428272126 0.27337858579548496 0.2536587324730902 Co
0.5169860309850136 0.7266229208360039 0.746343677078426 Co
0.8150428304829471 0.5181798045674024 0.6730125337462661 O
0.321228751624798 0.47452300503936873 0.8238363281523963 O
0.6787808294233504 0.5254618397418372 0.1761610196378692 O
0.18497967174030336 0.4818364861918581 0.3269896707852752 O
0.7072376447370984 0.0194915862511706 0.683576820117405 F
0.1998422705513626 0.7216994523864004 0.06870678185428551 F
0.6894403421517836 0.2884281243795418 0.4219569370704656 F
0.31057680620923467 0.7115764576037871 0.5780437118268588 F
0.8001538364390615 0.2782911029010929 0.9312896292627068 F
0.3000198450744718 0.23721268661587014 0.0760851928298641 F
0.8100207047488123 0.7780195058887469 0.4356949795492279 F
0.18999834791318987 0.22199767745675997 0.5643035770564649 F
0.6999731803141899 0.7627856542574389 0.9239201525186138 F
0.7869702356563525 0.0293717030970259 0.1777593610088913 F
0.2927513613486551 0.9805193737546208 0.3164233210018018 F
0.21301287712260064 0.9706126622032842 0.8222414035811283 F
