System
1.0
6.003603501470318 -0.0047951788443682 0.0049053527555012
0.0040169644433247 6.201580741518566 -0.010467247436545
0.0288530548367579 0.0650767943435477 8.566201135559252
Sr Bi O 
5 3 12 
direct
0.0 0.0 0.0 Sr
0.9834040441445824 0.44564474709170593 0.2418826295182322 Sr
0.512755156444053 0.9489636945888644 0.2442985706303312 Sr
0.4872448435559471 0.051036305411135206 0.7557014293696688 Sr
0.016595955855417097 0.5543552529082939 0.7581173704817676 Sr
0.49999999999999994 0.5 0.5 Bi
0.5 0.49999999999999994 -1.321606024476506e-19 Bi
-3.6625693535965884e-19 1.1572884776316518e-18 0.5 Bi
0.20886041070043274 0.32353812523938785 0.9524154702436144 O
0.2897729063652316 0.7922319005258379 0.561105476113792 O
0.3285272399947324 0.7884889330447941 0.9466548193420057 O
0.3892745738644707 0.5469720515959633 0.250567234498062 O
0.6107254261355292 0.4530279484040365 0.7494327655019452 O
0.7952522661445001 0.7150948231785657 0.4314694422788224 O
0.7102270936347684 0.2077680994741617 0.4388945238862079 O
0.7911395892995672 0.676461874760612 0.0475845297563855 O
0.2047477338555001 0.2849051768214346 0.5685305577211777 O
0.8878954638574593 0.9517579959434951 0.7295583843200163 O
0.6714727600052679 0.2115110669552061 0.0533451806579943 O
0.11210453614254051 0.0482420040565045 0.2704416156799843 O
