System
1.0
4.371520423872087 0.0024265725064473 3.0783229559080634
1.6002614909179678 4.067309801034602 3.0796049347986827
0.0058551351979925 0.0025883990246414 5.3466382375754975
Li V Cr O 
1 2 1 6 
direct
0.28878867510704925 0.288806282297524 0.2887304437855664 Li
0.0022264559182892008 0.0022690352378563995 0.002108271722228 V
0.4976622840370118 0.49775122716865416 0.49761018901946574 V
0.8052910576836919 0.8052569318782692 0.8051837714167394 Cr
0.08846520753439176 0.7312892739101599 0.3876322209847702 O
0.38771348695429103 0.08845055554687312 0.7312300702625515 O
0.731307045332897 0.3877030431131847 0.08838183878898886 O
0.21965326846968236 0.6099217042115949 0.8696745764977919 O
0.6099577061659203 0.8697277910990618 0.21956767183514878 O
0.869735812796772 0.2196231555368304 0.6098799456867585 O
