System
1.0
3.8495664665219893 -0.0023571352973811 -4.42094897209e-05
-1.920323562970429 7.512244990742766 0.0049048785161254
-0.0007542693829482 -1.4966249934019278 9.197391017083506
Sr Ti N O 
2 6 2 11 
direct
0.4596173647388273 0.9164264659501697 0.21145881716266307 Sr
0.5535132907364584 0.10422237859450878 0.7533663522938834 Sr
0.8783513278864647 0.753872484830538 0.9000029343328637 Ti
0.8355597845657189 0.6683193671259945 0.5718371665295572 Ti
0.7687545019595647 0.5347299649982522 0.23750333724569098 Ti
0.23754838934463296 0.47230504425045255 0.7683718831976063 Ti
0.1657252982936451 0.32865930762035334 0.43354257449470707 Ti
0.1234418572964218 0.2441104642562251 0.07889580797513539 Ti
0.7675315337595999 0.5322691589069538 0.7519767746239723 N
0.1598204517107249 0.3168757176762563 0.902218994238057 N
0.12793562077094536 0.2530791567657794 0.6123281751745631 O
0.6376348470090094 0.27249349542702267 0.1243255347847319 O
0.7023766954092624 0.40195763042749005 0.42911434754228434 O
0.24064298171446227 0.47849897319093293 0.24475297568679938 O
0.9389540779864786 0.87510177758647 0.7110062068146071 O
0.3674075802458156 0.7320072021499556 0.8970563480576166 O
0.8355278239515874 0.6682364308547768 0.09174617894952809 O
0.8734835566978193 0.7442129503760784 0.38234684091196486 O
0.06371622372615839 0.12462424970771409 0.3070689621821301 O
0.3059988047877452 0.6092006756372552 0.5662510058236588 O
-0.0008690125913284827 0.9954771036668105 0.012988781977979199 O
