System
1.0
4.93873100201952 -4.50479746005e-05 -2.0942666417762372
7.334632212e-07 5.459584841604507 5.2190949415e-06
0.0356574964164746 6.62624695638e-05 6.960159081661666
La Co O 
4 2 8 
direct
0.3644333347180498 0.9917498549020459 0.7251006896554204 La
0.13557676024697624 0.4917416492748349 0.2749028175745659 La
0.8644255797530251 0.5082555407251602 0.7250987624254301 La
0.6355671152819524 0.008248235097952798 0.2749011603445833 La
0.9999995900000017 1.299999964999977e-07 0.9999994300000026 Co
0.49999943000000263 0.5000005699999973 0.9999985099999976 Co
0.7399988336714666 0.25134012798603916 0.9773039180229057 O
0.6802449433967698 0.46345049801347304 0.3589257640939698 O
0.8197226536721386 0.96346323960651 0.6410921199469521 O
0.23997113997526892 0.24866025707996386 0.9772367489602651 O
0.25999937632853415 0.7486605320139591 0.0226926919770909 O
0.18027845632786105 0.036539310393487394 0.3589070700530527 O
0.3197534866032284 0.5365525119865272 0.6410754659060324 O
0.7600303100247299 0.7513395429200335 0.022762841039736404 O
