System
1.0
5.738073321988903 0.0247494558476916 0.0046112069131628
2.8474292794419767 4.981805513472533 -0.0120178150032787
2.857885712573551 1.683001908929176 4.842714149729075
Li V Co O 
3 3 1 8 
direct
-1.6505800328976236e-17 2.616433184689572e-17 0.5 Li
-7.447274512048238e-18 0.5 0.5 Li
0.5 4.237527789066238e-17 0.49999999999999994 Li
0.49999999999999994 0.5 3.132778766092091e-19 V
0.5 1.900330648853219e-19 2.6360495744270602e-20 V
-4.6868888786727676e-17 0.5 1.7849716361638804e-19 V
0.0 0.0 0.0 Co
0.7456232194539665 0.7456290450598754 0.7631296452687353 O
0.23666210218004216 0.23668337571790968 0.7798453178758817 O
0.23666541155537943 0.7468261661330929 0.7798456692370801 O
0.2543767805460336 0.25437095494012496 0.2368703547312646 O
0.7468137290468797 0.2366791983096841 0.7798456776246037 O
0.7633378978199576 0.7633166242820905 0.22015468212411776 O
0.7633345884446203 0.25317383386690706 0.2201543307629198 O
0.2531862709531202 0.7633208016903158 0.22015432237539628 O
