System
1.0
4.1867014400290214 -7.251579750984751 0.0
4.186701434073321 7.251579754423275 -0.0
0.0 -0.0 3.267125122353008
Li Cd B O 
3 3 3 9 
direct
0.2910467921007561 0.007309143900504 0.5 Li
0.7162623517997619 0.7089532078992482 0.5 Li
0.992690856099489 0.28373764820024067 0.5 Li
0.6311607459294131 0.9956417851860355 0.0 Cd
0.004358214813967942 0.6355189607433763 0.0 Cd
0.3644810392566186 0.368839254070588 0.0 Cd
0.6666669999999968 0.3333330000000032 0.5 B
0.3333330000000032 0.6666669999999968 0.5 B
0.0 0.0 0.0 B
0.8571614109311438 0.4148284781923471 0.5 O
0.1883590819847747 0.06177255427435036 0.0 O
0.9382274457256733 0.12658752771044596 0.0 O
0.873412472289548 0.811640918015208 0.0 O
0.24684210443498125 0.47537699006988215 0.5 O
0.22853488563490437 0.7531578955650003 0.5 O
0.5246230099301072 0.7714651143651248 0.5 O
0.5851715218076893 0.44233293273881646 0.5 O
0.5576670672611668 0.1428385890688366 0.5 O
