System
1.0
4.930251021071019 0.0382773917811919 0.670352170338327
-1.007740087971755 4.82631331396834 0.6703521703383268
0.0612052695226441 0.0759051001618241 4.37974961925761
Co P O 
1 2 7 
direct
0.0536611835729406 0.9463388164270597 0.4999999999999999 Co
0.20402631865910661 0.38626328276843047 0.9083080613583006 P
0.6137367172315699 0.7959736813408927 0.0916919386416991 P
0.49727939251350545 0.502720607486495 1.635618911947459e-18 O
0.0024458279737248918 0.2429629693528748 0.21834811672193377 O
0.7570370306471249 0.9975541720262749 0.7816518832780663 O
0.08035637414822722 0.6242394364129633 0.773656228130598 O
0.8046410421692507 0.7139704505024949 0.32093383530793523 O
0.3757605635870366 0.9196436258517728 0.22634377186940216 O
0.28602954949750525 0.19535895783074939 0.6790661646920649 O
