System
1.0
16.33418513107817 0.0551722060782314 -0.3021535432050012
16.078832452309978 2.8774632646138683 -0.3021535432050011
-0.1144140007054077 -0.0103518457036358 4.927111306481933
Li Co O 
8 6 14 
direct
0.9307075120498333 0.9307075120498339 0.1453490071460465 Li
0.3587353626039894 0.3587353626039896 0.2791842891692774 Li
0.78614646752842 0.7861464675284204 0.4257849861994087 Li
0.2138535324715794 0.21385353247157957 0.5742150138005916 Li
0.6412646373960103 0.6412646373960108 0.7208157108307226 Li
0.4999999999999999 0.5000000000000001 8.806018750710555e-19 Li
0.0692924879501665 0.06929248795016651 0.8546509928539537 Li
2.0970026101786152e-19 -9.349558504097147e-20 0.5 Li
0.7143444451219081 0.7143444451219086 0.0738631531543001 Co
0.2856555548780912 0.28565555487809147 0.9261368468457003 Co
0.14299136172280463 0.14299136172280474 0.2201601369061331 Co
0.5697253189001296 0.5697253189001298 0.364660066737522 Co
0.43027468109987066 0.43027468109987094 0.6353399332624781 Co
0.8570086382771953 0.8570086382771958 0.779839863093867 Co
0.609877914354492 0.6098779143544922 0.07312122237764 O
0.18028898960961504 0.18028898960961512 0.9249900121202437 O
0.7513644231649902 0.7513644231649907 0.7777227493369858 O
0.32246812741325476 0.322468127413255 0.6296831501495682 O
0.8939672622819049 0.8939672622819057 0.4897692934094334 O
0.10603273771809404 0.10603273771809411 0.5102307065905667 O
0.5390231037765548 0.5390231037765554 0.66198023915793 O
0.24863557683500914 0.24863557683500923 0.2222772506630145 O
0.8197110103903843 0.8197110103903847 0.07500998787975659 O
0.39012208564550815 0.39012208564550843 0.92687877762236 O
0.9598115192345237 0.9598115192345243 0.802705989803621 O
0.46097689622344473 0.4609768962234451 0.3380197608420699 O
0.6775318725867447 0.677531872586745 0.3703168498504316 O
0.04018848076547597 0.04018848076547601 0.1972940101963788 O
