System
1.0
2.9255294510922036 4.466347e-10 -0.0
-1.4627642249267667 4.8263643189342025 -0.0
0.0 -0.0 9.418841122139176
Zn Cu O 
2 4 8 
direct
0.3912708568379069 0.7825427136753347 0.75 Zn
0.608729143162093 0.2174572863246652 0.25 Zn
0.8682310108545871 0.7364640217094156 0.0697981618873791 Cu
0.131768989145413 0.26353597829058434 0.930201838112621 Cu
0.8682310108545871 0.7364640217094156 0.4302018381126209 Cu
0.131768989145413 0.26353597829058434 0.569798161887379 Cu
0.2216186021322754 0.4432372042647156 0.3871396484692806 O
0.7783813978677248 0.5567627957352843 0.6128603515307195 O
0.7783813978677248 0.5567627957352843 0.8871396484692804 O
0.2216186021322754 0.4432372042647156 0.11286035153071938 O
0.9585304365392321 0.9170618730784893 0.25 O
0.04146956346076771 0.0829381269215106 0.75 O
0.5 0.0 0.0 O
0.5 0.0 0.5 O
