System
1.0
5.994922848412779 -0.0539610949530207 4e-16
-1.0038914889273425 5.9105172055116615 4e-16
-0.0 -0.0 7.563753109810864
K Ti O F 
4 2 4 8 
direct
0.9767557287024401 0.5014918482741842 0.25 K
0.4985081517258152 0.0232442712975602 0.75 K
0.023244271297560196 0.4985081517258152 0.75 K
0.5014918482741842 0.9767557287024399 0.25 K
0.0 0.0 0.5 Ti
0.0 0.0 0.0 Ti
0.5425806147260436 0.5425806147260435 0.75 O
0.4574193852739554 0.4574193852739554 0.25 O
0.0038637240006493 0.0038637240006492994 0.25 O
-0.0038637240006492 -0.0038637240006492 0.75 O
0.2514476894127881 0.25144768941278806 -0.0061758209209599 F
0.7894220781478626 0.2105779218521373 0.5 F
0.7894220781478626 0.2105779218521373 0.0 F
0.21057792185213728 0.7894220781478625 0.5 F
0.21057792185213728 0.7894220781478625 0.0 F
0.2514476894127881 0.25144768941278806 0.5061758209209599 F
0.7485523105872118 0.7485523105872118 0.4938241790790401 F
0.7485523105872118 0.7485523105872118 0.0061758209209599 F
