System
1.0
3.589601848472518 0.0001680364044582 -0.0032938727687538
-1.7946557082399794 3.108434220344677 5.3975325e-09
0.0117643275348779 0.0067924581230089 4.823716714798361
Ca H O 
1 2 2 
direct
2.4833636655396373e-12 0.9397615797820339 5.781599947248475e-12 Ca
0.3340301385756839 0.6067144949640794 0.5573706946239522 H
0.6659698614565854 0.2726843564540393 0.44262930533319883 H
0.3339042107626972 0.6066693897871137 0.7597864742600016 O
0.6660957892025506 0.27276517901272995 0.24021352577706453 O
