System
1.0
3.728057464784842 -6.457185107463673 -0.0
3.728057464784842 6.457185107463673 -0.0
0.0 -0.0 3.833430135104274
W O 
3 9 
direct
0.5 3.5156367606768874e-19 0.0 W
0.49999999999999994 0.5000000000000001 0.0 W
-3.810940684344834e-17 0.5000000000000001 0.0 W
0.5714962490489224 0.7857481245239343 0.0 O
0.2142518754750185 0.7857481245249817 0.0 O
0.42850375095107746 0.21425187547606606 0.0 O
0.7857481245239342 0.5714962490489225 0.0 O
0.49999999999999994 0.5000000000000001 0.5 O
-3.810940684344834e-17 0.5000000000000001 0.5 O
0.5 3.5156367606768874e-19 0.5 O
0.21425187547606597 0.4285037509510776 0.0 O
0.7857481245249816 0.21425187547501856 0.0 O
