System
1.0
3.940672069310936 -0.0180345525520354 -6.869871054899574
-0.2953725447279907 3.9296286108204375 -6.86987105239457
0.0168067918927799 0.0180345529294751 7.919832328143086
Li Ti Sb O 
2 2 2 1 
direct
0.6681578873973043 0.6681578873979546 2.5786712560065293e-13 Li
0.33184211260269547 0.3318421126020448 -2.5799132388834524e-13 Li
0.5 -6.088486305483488e-19 0.5 Ti
9.238327590353282e-19 0.49999999999999994 0.5 Ti
0.859919664542926 0.8599196645431584 9.205196753673999e-14 Sb
0.14008033545707388 0.14008033545684168 -9.203832391223615e-14 Sb
0.5 0.49999999999999994 -6.245013105190193e-17 O
