System
1.0
6.279702560400611 -0.0193433076040468 -0.0217277082556598
-0.6705562742566838 6.243828147558886 -0.0217276750849548
-0.6705562453906821 -0.7441183631902127 6.199366440321148
Cr Si H O F 
1 1 12 6 6 
direct
0.0 0.0 0.0 Cr
0.5 0.5000000000000001 0.5000000000000001 Si
0.42260347081877275 0.19283358389388353 0.062127473845443607 H
0.8215923609095956 0.32484484130215285 0.22515880531880125 H
0.9378725261580289 0.577396529176553 0.8071664160891625 H
0.8071664160982271 0.9378725261515325 0.5773965291858563 H
0.7748411946958091 0.17840763908041535 0.6751551586962025 H
0.6751551587045646 0.7748411946956988 0.17840763907285762 H
0.3248448412954356 0.225158805304301 0.8215923609271423 H
0.22515880530419122 0.8215923609195853 0.32484484130379865 H
0.5773965291812282 0.8071664161061168 0.9378725261545566 H
0.0621274738419711 0.42260347082344707 0.19283358391083763 H
0.17840763909040422 0.6751551586978477 0.7748411946811989 H
0.1928335839017722 0.062127473848467514 0.42260347081414334 H
0.9385105122530981 0.31440063237399 0.13344100614413304 O
0.061489487746902015 0.6855993676260113 0.8665589938558664 O
0.1334410061385137 0.9385105122624002 0.31440063237422644 O
0.3144006323720846 0.13344100613226564 0.9385105122572843 O
0.6855993676279156 0.8665589938677343 0.061489487742715704 O
0.8665589938614874 0.06148948773760072 0.6855993676257736 O
0.292775915032797 0.32888964158607015 0.5694094916202336 F
0.7072240849672028 0.6711103584139291 0.430590508379766 F
0.6711103584190452 0.4305905083797548 0.7072240849620184 F
0.569409491624399 0.29277591503248585 0.3288896415815043 F
0.4305905083756019 0.7072240849675138 0.6711103584184964 F
0.32888964158095524 0.5694094916202458 0.29277591503798167 F
