System
1.0
3.6701660825517304 -2.8258008e-09 -1.0719183980417604
-0.3130669549909845 3.6567890279435753 -1.0719183954319944
0.0265133241749559 0.0288800441345292 6.909920791579282
Sr V O 
2 1 4 
direct
0.6458920283682889 0.6458930283667813 0.29178405673315133 Sr
0.3541089716317086 0.3541069716332183 0.7082149432668513 Sr
0.0 0.0 0.0 V
0.8419569143184372 0.8419589143196509 0.6839158286396282 O
0.1580420856815583 0.15804208568034658 0.316084171360372 O
0.5000009999999976 1.3328869694412868e-21 9.47362154294242e-18 O
9.9999999749996e-07 0.4999999999999999 -4.404166264872037e-18 O
