System
1.0
6.191978969838918 -0.005322281694388 -5.39707696516
-0.9994878831545185 5.5319251047084625 -5.988981571582426
-0.015180852559948 0.0053222816979081 8.213940155156449
Ce N Cl 
4 2 6 
direct
0.9173900324431798 0.5947731740758223 0.3226168583673509 Ce
0.08260996755682012 0.4052268259241777 0.6773831416326488 Ce
0.7278436842915299 0.9052268259241794 0.8226168583673521 Ce
0.2721563157084703 0.09477317407582092 0.17738314163264798 Ce
2.879475310641023e-18 0.25 0.24999999999999997 N
1.5481555600161407e-18 0.75 0.7499999999999999 N
0.5 0.25 0.7499999999999999 Cl
0.49999999999999994 0.75 0.2500000000000001 Cl
0.9988313955670544 0.804257766714354 0.19457362885270219 Cl
0.001168604432945407 0.19574223328564613 0.8054263711472976 Cl
0.39031586213834835 0.6957422332856468 0.6945736288527025 Cl
0.6096841378616517 0.30425776671435334 0.30542637114729776 Cl
