System
1.0
4.869300706277092 0.0 0.0
0.0 6.620497475093238 0.0
0.0 0.0 6.707281892956612
Li Re N 
10 2 8 
direct
0.29975329951707963 0.0 0.0 Li
0.24514855735518706 0.7624400821942235 0.6982394999643615 Li
0.7548514426448124 0.2624400821942235 0.8017605000356385 Li
0.7548514426448124 0.7375599178057766 0.1982394999643622 Li
0.7548514426448124 0.7375599178057766 0.8017605000356385 Li
0.24514855735518706 0.2375599178057765 0.3017605000356379 Li
0.24514855735518706 0.2375599178057765 0.6982394999643615 Li
0.24514855735518706 0.7624400821942235 0.3017605000356379 Li
0.7002467004829206 0.5 0.5 Li
0.7548514426448124 0.2624400821942235 0.1982394999643622 Li
0.2770305073066479 0.5 0.0 Re
0.7229694926933524 0.0 0.5 Re
0.929993722764685 0.7682875345065302 0.5 N
0.07000627723531469 0.7317124654934699 0.0 N
0.516966293580043 0.0 0.730423112093595 N
0.4830337064199566 0.5 0.23042311209359492 N
0.4830337064199566 0.5 0.7695768879064052 N
0.07000627723531469 0.2682875345065302 0.0 N
0.929993722764685 0.2317124654934698 0.5 N
0.516966293580043 0.0 0.2695768879064054 N
