System
1.0
6.538267268324748 -0.0158351944085271 -0.000376261439242
-10.40960961641627 5.284792267483736 -9.52336009e-08
0.0004359419853847 0.0008586888723819 12.413127415871443
Sr Sb N 
8 4 12 
direct
0.4999945778679508 0.03757107417279357 0.8551593512565828 Sr
0.5000054221300761 0.5375764963038486 0.6448406487434148 Sr
0.5000054221320489 0.9624289258272065 0.14484064874341676 Sr
0.4999945778699237 0.46242350369615126 0.35515935125658527 Sr
0.5000602310745446 0.866825064979216 0.5751273376462529 Sr
0.4999397689263931 0.366764833905138 0.9248726623537477 Sr
0.49993976892545505 0.13317493502078406 0.4248726623537468 Sr
0.5000602310736065 0.6332351660948621 0.07512733764625208 Sr
0.49993671725435934 0.7536874399344498 0.34049484775442385 Sb
0.5000632827471602 0.2537507226808495 0.15950515224557268 Sb
0.5000632827456403 0.24631256006555016 0.659505152245576 Sb
0.49993671725283945 0.7462492773191505 0.8404948477544275 Sb
2.805384029867385e-12 0.0693504675242191 0.7499999999999911 N
2.786792586534543e-12 0.5694366287590811 0.7499999999999916 N
-2.7869687893153346e-12 0.4305633712409189 0.25000000000000827 N
0.500192672226981 0.07559516194005107 0.64216396732871 N
0.4998073277668565 0.5754024897100046 0.8578360326713155 N
0.4998073277730186 0.9244048380599491 0.3578360326712898 N
0.5001926722331428 0.42459751028999554 0.1421639673286846 N
0.4999221311786899 0.15314802201725766 0.028190327771679798 N
0.5000778688192326 0.6532258908374955 0.47180967222833875 N
0.5000778688213092 0.8468519779827419 0.97180967222832 N
0.4999221311807672 0.3467741091625045 0.528190327771661 N
-2.8056053130010294e-12 0.930649532475781 0.2500000000000084 N
