System
1.0
5.280844796829583 0.0 2.7748780150985137
2.6404223984147914 5.528393278446849 1.3874390075492569
0.0342583539332236 0.0 6.347203784960433
Ca N 
2 12 
direct
0.6250000000000002 0.7499999999999999 0.7500000000000001 Ca
0.37500000000000006 0.24999999999999997 0.25 Ca
0.8344591879104353 0.3869372196658772 0.4979602595376085 N
0.21935666711343105 0.11306278033412288 0.0020397404646257875 N
0.0011740632414630086 0.24999999999999997 0.9976518735176361 N
0.7488259367585368 0.24999999999999997 0.5023481264823639 N
0.998825936758537 0.7499999999999999 0.002348126482363628 N
0.25117406324146313 0.7499999999999999 0.49765187351763635 N
0.3324194474475611 0.8869372196658774 0.5020397404646256 N
0.22139640757631218 0.6130627803341226 0.9979602595376084 N
0.7806433328865694 0.8869372196658774 0.9979602595353744 N
0.16554081208956514 0.6130627803341226 0.5020397404623917 N
0.6675805525524392 0.11306278033412288 0.49796025953537404 N
0.778603592423688 0.3869372196658772 0.0020397404623915725 N
