System
1.0
0.0 7.286317124810801 0.0043373106215009
4.2246437295364005 0.0 0.0
0.0 -3.032423533867255 -8.872535843303876
Ba Ga Ge N 
4 2 2 2 
direct
0.8096600903646621 0.75 0.6179062210159966 Ba
0.7945391946114855 0.75 0.037724866852771995 Ba
0.19033990963533778 0.25 0.3820937789840033 Ba
0.20546080538851472 0.25 0.9622751331472278 Ba
0.5381450322124124 0.25 0.7539346044709592 Ga
0.46185496778758756 0.75 0.2460653955290409 Ga
0.6638180757921834 0.25 0.29863856683171136 Ge
0.33618192420781673 0.75 0.7013614331682886 Ge
0.8151939988725738 0.25 0.8283115507516691 N
0.184806001127426 0.75 0.17168844924833077 N
