System
1.0
1.9630870052074114 3.09405509586349 1.1195797432836223
-0.0125132231390071 -0.0217285756953376 -6.474195181773112
-5.751626272357542 3.0978285325521946 1.5238718870355883
Sr W N 
2 2 6 
direct
0.38254601898070945 0.7650920379608889 0.6654824683602241 Sr
0.6174539810192908 0.23490796203911116 0.3345175316397758 Sr
0.15197060060719667 0.3039412012170796 0.8680670476965422 W
0.8480293993928033 0.6960587987829204 0.1319329523034581 W
0.15437528569152617 0.3087505713860207 0.6015565902220071 N
0.002380453998969105 0.004760907997481401 0.10624539905895079 N
-0.0023804539989689534 -0.004760907997481373 0.8937546009410491 N
0.32038096909326413 0.6407619381891426 0.023733086458005696 N
0.679619030906735 0.3592380618108571 0.9762669135419945 N
0.8456247143084737 0.6912494286139793 0.39844340977799275 N
