System
1.0
-5.197389609764214 5.197389609764214 0.0
5.197389609764214 -0.0 5.197389609764214
5.197389609764214 5.197389609764214 -0.0
Sm Pt O 
4 4 14 
direct
0.12499999999999994 0.24999999999999997 0.12500000000000003 Sm
0.6249999999999998 0.75 0.12500000000000008 Sm
0.12499999999999992 0.75 0.12500000000000003 Sm
0.1249999999999998 0.24999999999999997 0.6249999999999999 Sm
0.6249999999999999 0.24999999999999997 0.12500000000000003 Pt
0.6249999999999998 0.24999999999999997 0.6249999999999999 Pt
0.6249999999999997 0.75 0.625 Pt
0.1249999999999998 0.75 0.6249999999999999 Pt
0.962293909266284 0.924588818532566 0.5377060907337159 O
0.5377060907337156 0.075411181467434 0.9622939092662841 O
0.5377060907337156 0.49999999999999994 0.5377060907337158 O
0.9622939092662839 0.49999999999999994 0.9622939092662842 O
0.2499999999999999 0.49999999999999994 0.25000000000000006 O
0.2877060907337156 0.0 0.7122939092662841 O
0.0 0.0 0.0 O
0.7122939092662841 0.42458881853256597 0.2877060907337158 O
0.28770609073371567 0.0 0.2877060907337157 O
0.5377060907337154 0.49999999999999994 0.9622939092662842 O
0.7122939092662841 0.0 0.7122939092662842 O
0.7122939092662842 0.0 0.2877060907337157 O
0.962293909266284 0.49999999999999994 0.5377060907337159 O
0.2877060907337155 0.575411181467434 0.7122939092662842 O
