System
1.0
0.0 7.052285574520224 -0.0068337070457765
8.465844221877829 0.0 0.0
0.0 -3.612573388690644 -8.333942478781266
Mg V P O 
4 4 8 28 
direct
0.6960663252009168 0.942614664880003 0.8173667301905713 Mg
0.3039336747990831 0.4426146648800026 0.6826332698094288 Mg
0.6960663252009169 0.557385335119997 0.3173667301905714 Mg
0.3039336747990831 0.057385335119997195 0.18263326980942832 Mg
0.23536487358018168 0.0744088396911972 0.6074795431648519 V
0.7646351264198181 0.9255911603088031 0.39252045683514813 V
0.764635126419818 0.5744088396911969 0.8925204568351482 V
0.23536487358018168 0.425591160308803 0.10747954316485181 V
0.9383215486753582 0.26865071553431813 0.7551708821288946 P
0.4699808841523023 0.7218138636253991 0.5332922807131061 P
0.9383215486753582 0.23134928446568176 0.25517088212889466 P
0.4699808841523023 0.7781861363746008 0.03329228071310591 P
0.061678451324641385 0.768650715534318 0.7448291178711056 P
0.5300191158476983 0.22181386362539907 0.9667077192868943 P
0.061678451324641406 0.7313492844656819 0.24482911787110545 P
0.5300191158476982 0.27818613637460077 0.46670771928689436 P
0.8807522703452303 0.11203991192677779 0.8043611645808861 O
0.1191212543747873 0.23702076439727537 0.20090613261021303 O
0.5166108155409281 0.9102423144174074 0.15831976795805291 O
0.37717444751435414 0.22474817889501458 0.04900404347095761 O
0.6228255524856455 0.7752518211049855 0.9509959565290425 O
0.48338918445907203 0.4102423144174082 0.341680232041947 O
0.5166108155409282 0.5897576855825925 0.6583197679580528 O
0.8807522703452302 0.38796008807322213 0.3043611645808861 O
0.8808787456252125 0.7370207643972756 0.2990938673897869 O
0.5467932669107185 0.1152498533294725 0.3988593082732518 O
0.0266112515963973 0.5992826634091126 0.12075826922011781 O
0.45320673308928083 0.8847501466705271 0.6011406917267481 O
0.7497871915481065 0.331992629307644 0.5962333579306921 O
0.9733887484036027 0.0992826634091127 0.37924173077988227 O
0.8808787456252125 0.7629792356027244 0.7990938673897872 O
0.9733887484036027 0.4007173365908874 0.8792417307798827 O
0.026611251596397306 0.9007173365908873 0.6207582692201176 O
0.3771744475143542 0.2752518211049852 0.5490040434709578 O
0.48338918445907203 0.08975768558259199 0.8416802320419474 O
0.45320673308928083 0.6152498533294728 0.10114069172674842 O
0.6228255524856455 0.7247481788950145 0.45099595652904256 O
0.2502128084518926 0.8319926293076442 0.9037666420693081 O
0.5467932669107185 0.3847501466705275 0.8988593082732521 O
0.11924772965476949 0.8879600880732219 0.19563883541911392 O
0.1192477296547695 0.6120399119267781 0.6956388354191141 O
0.7497871915481064 0.16800737069235608 0.09623335793069202 O
0.11912125437478727 0.2629792356027247 0.700906132610213 O
0.2502128084518926 0.6680073706923557 0.40376664206930785 O
