System
1.0
4.597413565080848 -0.0044484452376419 -0.0
-0.0044484452376419 4.597413565080848 0.0
-0.0 0.0 12.406361589285916
Mn O F 
8 8 8 
direct
0.9685205463936007 0.9685205463936005 0.0 Mn
0.0243506610677955 0.03665124284725459 0.25 Mn
0.9685205463936007 0.9685205463936005 0.5 Mn
0.0366512428472546 0.024350661067795498 0.75 Mn
0.46912387878344475 0.5285882415894994 0.6250106381049768 Mn
0.5285882415894994 0.46912387878344464 0.1250106381049772 Mn
0.5285882415894994 0.46912387878344464 0.3749893618950228 Mn
0.46912387878344475 0.5285882415894994 0.8749893618950232 Mn
0.8212474306359306 0.1764269320394958 0.3752019434074577 O
0.8212474306359306 0.1764269320394958 0.1247980565925422 O
0.6767437247656558 0.6767437247656556 0.5 O
0.6767437247656558 0.6767437247656556 0.0 O
0.2990743270513456 0.33720979119669287 0.75 O
0.337209791196693 0.2990743270513456 0.25 O
0.1764269320394958 0.8212474306359306 0.8752019434074573 O
0.1764269320394958 0.8212474306359306 0.6247980565925426 O
0.22672058669817693 0.783782838441086 0.1323582612702164 F
0.22672058669817693 0.783782838441086 0.3676417387297837 F
0.27558740530085113 0.2755874053008511 0.0 F
0.27558740530085113 0.2755874053008511 0.5 F
0.7457762495978179 0.7034545589436327 0.25 F
0.7034545589436328 0.7457762495978177 0.75 F
0.7837828384410862 0.2267205866981769 0.6323582612702164 F
0.7837828384410862 0.2267205866981769 0.8676417387297833 F
