System
1.0
4.477467184752949 -0.1301416987715796 0.1992582777278812
-0.5080004767011727 -3.601093859174025 0.8283577121887546
-1.6449135403726904 2.3883644554052768 -3.678222221077833
Mg N 
1 3 
direct
-0.007287596623295216 0.01714873473875781 0.8632527796997055 Mg
0.8977710314091734 0.6521257802311404 0.028752330170695225 N
0.6033831506215791 0.47899520409396723 -0.02584321855455247 N
0.5407567778983478 0.42251144154422654 0.18684618082934173 N
