System
1.0
-2.4306667174241734 2.42044688195e-05 5.176653678258383
6.827288610276175 -0.0001255539493635 0.1528487652611364
3.413527902987277 6.324428012046565 0.0763990840595668
Cu H Br N 
2 12 2 4 
direct
-2.2540777331200003e-05 -8.374912554400004e-06 -3.579575652370001e-05 Cu
0.4999769431572949 -4.343513795649631e-05 3.51440027313e-05 Cu
0.2129959882963268 0.8252177356190598 0.7705080173849558 H
0.28699896945204983 0.4042539039262255 0.7705032962854155 H
0.5136145298824846 0.8605183891330282 0.7434820397459767 H
0.9864014517099252 0.3960132814916293 0.7434815970860116 H
0.4119633034929798 0.09202762037342882 0.6176168427430417 H
0.08802732620033112 0.29039579207274446 0.6175711993985488 H
0.9119743346975746 0.7096549512149709 0.38238211625475255 H
0.013619599218870895 0.6040148469810885 0.25650319342244376 H
0.48640575161424326 0.1394942214265904 0.25653216883560365 H
0.7130014793684718 0.595736250833255 0.22948539673028073 H
0.7870044574964062 0.1747611565753621 0.22950479345461752 H
0.5880364474503118 0.9079754545493364 0.38242899417250353 H
0.2500077110473381 0.3659081074150169 0.268183815531726 Br
0.7500010411336406 0.6340817028244113 0.7318170057950437 Br
0.0981661238839294 0.3024842990704065 0.757174258917093 N
0.5981715110691862 0.05966231934876082 0.24283235756037594 N
0.9018300806579446 0.6975313715048798 0.24279409195917753 N
0.4018244909480037 0.9403214056903081 0.7571984664762349 N
