System
1.0
3.8063133137853113 0.0 -0.0
0.0 3.8063133137853113 0.0
0.0 0.0 3.8063133137853113
Mn Ni N 
3 1 1 
direct
0.0 0.5 0.5 Mn
0.5 0.5 0.0 Mn
0.5 0.0 0.5 Mn
0.0 0.0 0.0 Ni
0.5 0.5 0.5 N
