System
1.0
5.7648356531444325 -0.0062716079539787 0.7167584046608626
1.2700411062503492 6.449830797100078 0.1034357875442159
-0.0271915320338189 0.0822304297840767 7.476359645263805
Ti N Cl 
2 6 6 
direct
0.7192805168465788 0.931001522113194 0.13665848853447543 Ti
0.2807194831534214 0.06899847788680552 0.8633415114655243 Ti
0.38908387135902034 0.11860383460159708 0.12322464877491171 N
0.7147966188342636 0.7479376921507029 0.7670596999277888 N
0.8128255738208279 0.6248430704942747 0.6657632444910809 N
0.61091612864098 0.8813961653984032 0.8767753512250883 N
0.1871744261791724 0.3751569295057254 0.33423675550891907 N
0.28520338116573657 0.2520623078492981 0.23294030007221134 N
0.3812417738933929 0.35393110546781636 0.745244968001036 Cl
0.6187582261066081 0.6460688945321832 0.254755031998964 Cl
0.8912529740916092 0.23551497222375167 0.9615254406894068 Cl
0.10874702590839054 0.7644850277762478 0.03847455931059351 Cl
0.23601698118047165 0.9133028477227905 0.6130481868467959 Cl
0.7639830188195279 0.08669715227720962 0.3869518131532048 Cl
