System
1.0
5.29177249 0.0 0.0
0.0 5.29177249 0.0
0.0 0.0 7.408481486
Bi N 
1 1 
direct
0.0 0.0 0.8212796056154696 Bi
0.0 0.0 0.1787203943845303 N
