System
1.0
0.0 3.503959936578379 1.89352904148526
4.042179219801692 0.0 0.0
0.0 3.5038571255849464 -2.2950694807468137
Y Tc N 
1 1 3 
direct
0.8311695536409206 0.5 0.3376598927182108 Y
0.5240078219370955 0.0 0.9519843561253989 Tc
0.41295130254831536 0.0 0.5111628619487959 N
0.07588583550274484 0.0 0.5111628619493336 N
0.5105644863709241 0.5 0.9788700272582629 N
