System
1.0
4.217920605399282 -0.0018829670924898 0.2484915330894117
1.9084463000326928 3.761473322005909 0.2484914907829304
0.1804897003893149 0.1107615933191762 9.077655432261883
K C I N 
1 2 1 2 
direct
0.5000000000000001 0.5 0.5 K
0.8792910674898536 0.8792910674747514 0.7754443625705206 C
0.12070893251014682 0.1207089325252488 0.2245556374294798 C
0.0 0.0 0.0 I
0.17953908154706896 0.17953908152243186 0.34071411777966387 N
0.8204609184529317 0.820460918477568 0.6592858822203361 N
