System
1.0
6.46874850508001 -0.004315872932797 -0.2027997011233169
-6.005993201325442 6.456492553945996 -6.333994814e-07
0.0062835385504549 0.0058451099952761 5.601520190833144
Mg In N 
6 4 8 
direct
0.2388227913473215 0.018371303573936102 0.1023110175459939 Mg
0.7611772086526788 0.7795485122266088 0.3976889824539496 Mg
0.7611772086526786 0.9816286964260641 0.8976889824540062 Mg
0.2388227913473209 0.22045148777339124 0.6023110175460504 Mg
9.089439955011205e-14 0.7107916128390719 0.7499999999997852 Mg
-9.078213875436023e-14 0.28920838716092795 0.2500000000002148 Mg
0.6586821015201407 0.4501359957277944 0.1462824091526134 In
0.3413178984798663 0.7914549042076701 0.3537175908473813 In
0.658682101520134 0.20854509579233013 0.6462824091526187 In
0.34131789847985894 0.5498640042722058 0.8537175908473866 In
0.320295606521773 0.7738341662012941 0.9656500436401372 N
0.19802132649564638 0.9505693786591454 0.4873751994875977 N
0.8019786735046277 0.7525480521636415 0.012624800512195401 N
0.8019786735043535 0.04943062134085481 0.5126248005124022 N
0.19802132649537227 0.24745194783635885 0.9873751994878047 N
0.6797043934782273 0.22616583379870583 0.0343499563598629 N
0.3202956065215967 0.546460440320381 0.46565004364027945 N
0.6797043934784031 0.45353955967961906 0.5343499563597206 N
