System
1.0
5.423371376826194 -0.0 0.0
0.0 5.423371376826194 0.0
-0.0 0.0 5.423371376826194
Sm Al N 
3 1 1 
direct
0.0 0.5 0.5 Sm
0.5 0.0 0.5 Sm
0.5 0.5 0.0 Sm
0.5 0.5 0.5 Al
0.0 0.0 0.0 N
