System
1.0
0.0 5.333067920445398 6.6222759526938475
4.489197252344692 0.0 6.6222759526938475
4.489197252344692 5.333067920445398 0.0
K B C N 
4 2 6 6 
direct
0.2042197788235262 0.3846083856843063 0.6248242403570671 K
0.36539161431569367 0.5457802211764733 0.9636514048648943 K
0.1251757596429335 0.9636514048648943 0.5457802211764734 K
0.7863485951351057 0.6248242403570671 0.38460838568430616 K
0.7881212362955008 0.2118787637044988 0.21187876370449862 B
0.5381212362955009 0.9618787637044991 0.9618787637044992 B
0.9160941157128032 0.9719033389619749 0.2870670235648447 C
0.7780966610380251 0.8339058842871968 0.9250644782396308 C
0.4629329764351555 0.9250644782396307 0.8339058842871967 C
0.3707419840041695 0.12925801599583042 0.1292580159958304 C
0.6207419840041698 0.3792580159958305 0.3792580159958305 C
0.8249355217603692 0.2870670235648446 0.9719033389619751 C
0.9649436123275326 0.7315209758700301 0.9043860893956132 N
0.4886058335341716 0.5113941664658282 0.5113941664658281 N
0.2386058335341717 0.26139416646582847 0.2613941664658284 N
0.8456139106043868 0.35085067759317656 0.7850563876724674 N
0.018479024129969747 0.7850563876724674 0.3508506775931765 N
0.3991493224068234 0.9043860893956133 0.7315209758700301 N
