System
1.0
5.089546040802226 0.0 -0.0
0.0 5.089546040802226 0.0
0.0 0.0 5.089546040802226
Sr As N 
3 1 1 
direct
0.0 0.5 0.5 Sr
0.5 0.0 0.5 Sr
0.5 0.5 0.0 Sr
0.0 0.0 0.0 As
0.5 0.5 0.5 N
