System
1.0
3.0286914482921614 0.0210164148043202 0.9338474014304027
-1.687113716801272 2.6944184075050575 -1.138700432e-07
0.2453205736944785 0.1536078901707136 8.016271862235602
Mn Cd N 
2 1 2 
direct
0.5407880488085707 0.2703935243893121 0.11446658740052791 Mn
0.45921195119142993 0.7296064756106889 0.8855334125994718 Mn
7.070506388287281e-19 -6.983959456769932e-19 0.5 Cd
0.8348190162781638 0.417409008163845 0.845889007969976 N
0.16518098372183596 0.5825909918361548 0.1541109920300245 N
