System
1.0
6.041147059453933 1.9498898e-09 1.7233440340125463
3.020573530207595 8.90743605392917 0.8616715305796918
-0.1900881977144597 1.35864115e-08 12.116586937058115
Cd Hg C S Br N 
1 4 6 6 4 6 
direct
0.0356304786450539 -4.1460000000000007e-13 -7.404000871962629e-13 Cd
0.4741055130156076 0.68570062684911 0.3786562279856207 Hg
0.8527607410091141 0.6857006268472873 0.6213437720138174 Hg
0.15980513986261968 0.3142993731538117 0.3786562279856728 Hg
0.5384613678561252 0.3142993731519879 0.6213437720138694 Hg
0.9334294175654151 0.7364228936054921 0.8547552239965018 C
0.7881836415535397 0.7364228936100115 0.14524477600421112 C
0.5246075351610471 0.2635771063941548 0.145244776004312 C
0.25962616780370545 -1.3068e-12 0.22859111075870459 C
0.4882172785585635 6.067e-13 0.7714088892417952 C
0.6698523111729318 0.2635771063896348 0.8547552239966034 C
0.2577470254571071 0.3856676499844332 0.17534808766005408 S
0.6587573084472281 7.49e-13 0.6428516760162616 S
0.3016089844663152 -6.973000000000001e-13 0.3571483239842849 S
0.43309611313205026 0.3856676499785768 0.8246519123403622 S
0.6434146754388906 0.6143323500219883 0.1753480876595591 S
0.8187637631138338 0.614332350016132 0.8246519123398665 S
0.06121187612984525 0.3075972734394302 0.5994484713509456 Br
0.3688091495696413 0.6924027265597175 0.5994484713511237 Br
0.660660347481163 0.3075972734414306 0.4005515286488807 Br
0.9682576209209589 0.6924027265617163 0.40055152864905885 Br
0.23262308004423804 -1.0542e-12 0.13631576464726627 N
0.015838742140788908 0.8202095598032257 0.8790822653663063 N
0.8360473019451015 0.1797904401938534 0.8790822653663277 N
0.7151295673117132 0.1797904401954008 0.12091773463364398 N
0.3689388446900246 -5.21e-14 0.8636842353520696 N
0.8949200075073963 0.8202095598047741 0.12091773463362167 N
