System
1.0
4.064976636519467 -0.0650582413643772 3.2660719806968213
2.128080680955856 3.4640352546648554 3.2660719806968213
-0.0762072908272919 -0.0418253564417945 6.832908917735266
Ga H N F 
1 6 2 3 
direct
0.5000000000000002 0.5000000000000001 0.5 Ga
0.8265967650320274 0.8265967650320275 0.03273705839817698 H
0.17340323496797272 0.17340323496797272 0.9672629416018228 H
0.367226546487491 0.957437333237011 0.7679099526384043 H
0.04256266676298891 0.6327734535125089 0.23209004736159558 H
0.6327734535125089 0.04256266676298881 0.23209004736159564 H
0.957437333237011 0.36722654648749103 0.7679099526384044 H
0.779913800405219 0.779913800405219 0.21838728905216778 N
0.220086199594781 0.22008619959478096 0.7816127109478318 N
0.4815288722655863 0.48152887226558627 0.2361839021547883 F
0.5184711277344141 0.5184711277344141 0.7638160978452119 F
2.773434611939322e-20 7.510810014847616e-20 0.5 F
