System
1.0
6.249301845705322 0.0821515802803477 -0.2294257078283924
-2.9975678873782923 6.024267801602066 -0.3748061449675157
-0.1925602609606347 0.1326568300601113 9.504110060559432
H C S N 
14 16 2 2 
direct
0.6808357688224754 0.33707156782398984 0.05747363101996459 H
0.1564495747894916 0.1316519557865866 0.6896011168999319 H
0.15644865382443107 0.13165160247061677 0.1896012082585647 H
0.3468997022126009 0.2505916348450326 0.3816792432152291 H
0.5162448029061809 0.6492827877554106 0.5679895185207224 H
0.5162450552457817 0.6492828387647946 0.0679895671926728 H
0.17973017710414338 0.5600537690548291 0.38558288686195924 H
0.34690002715565266 0.25059096704050404 0.8816795437289958 H
0.8645938039057813 0.2348578106448155 0.7318644201293643 H
0.8645935302241826 0.23485854149467553 0.2318642850723442 H
0.6921360185358003 -0.028102217008209196 0.7936210668201326 H
0.6921350737551583 -0.028102369927867295 0.2936215899509143 H
0.6808359202618733 0.3370718428889309 0.5574734935388412 H
0.17973101067373917 0.5600545739756762 0.8855830841904885 H
0.7929122148590396 0.056484368620384785 0.7056889325953254 C
0.011143568522183183 0.8429663020376629 0.2846571613308754 C
0.01114545809537262 0.8429660867790226 0.7846575967517243 C
0.3848297452291863 0.11641467066131017 0.417861155470626 C
0.38482887887610007 0.1164151021382877 0.9178605799044873 C
0.5732719225446027 0.16599683569061366 0.519507560103349 C
0.5732712632764879 0.1659981727835582 0.019507020333931296 C
0.7929162028139957 0.0564839620697739 0.2056896354567536 C
0.2925540825289084 0.73047908146826 0.9226276311692688 C
0.237790666471763 0.8970460586452713 0.8697400816371829 C
0.6195811475633657 -0.0013536433561431981 0.576654767827674 C
0.6195796827475287 -0.0013537409805721 0.0766541815359617 C
0.2925549360017284 0.7304798731486405 0.4226283762518289 C
0.47948303661410924 0.7799036212382086 0.5245702833630905 C
0.4794823472186065 0.7799028276133944 0.024569836473215992 C
0.23778878029880451 0.8970451585691016 0.36973942480153715 C
0.7740162466043541 0.6063117988377088 0.8022454666421375 S
0.7740170716277472 0.6063127202727199 0.3022456715628314 S
-0.0011815606703189008 0.0036908550137407007 0.20667856596348197 N
-0.0011818106408621027 0.0036905831392769015 0.7066784154246039 N
