System
1.0
-0.000197659820301 -0.0023669106867828 -4.754400151184831
-2.9139985712082384 -5.023445792173709 -0.0029572576263458
-2.9133360131228057 5.022939642797434 0.0025698662757017
Tc N F 
1 2 6 
direct
0.0 0.0 0.0 Tc
0.29321657511311233 0.3340785148635519 0.6661080556038801 N
0.7067834248868876 0.6659214851364477 0.3338919443961191 N
0.22285895009155507 0.8506077601755004 0.7000571429806702 F
0.2227206597996808 0.2999603485879507 0.14941295199024165 F
0.22338392804881577 0.8496292825641099 0.15052897928933506 F
0.777141049908445 0.14939223982449917 0.2999428570193293 F
0.7772793402003189 0.70003965141205 0.8505870480097578 F
0.7766160719511832 0.15037071743589045 0.8494710207106648 F
