System
1.0
1.3218043690173185 3.9658530169804567 -0.0
0.0 0.0 5.70211461986477
6.6445364647611305 -0.0113965842812261 0.0
Sr Tc N 
2 2 6 
direct
0.370977511699903 0.25 0.2580449766002006 Sr
0.629022488300097 0.75 0.7419550233997994 Sr
0.9042761134100538 0.75 0.1914487731798902 Tc
0.09572388658994631 0.25 0.8085512268201097 Tc
0.8502852559138917 0.25 0.6044097029545525 N
0.5453060411315537 0.25 0.6044097029545524 N
0.0 0.5 0.0 N
0.14971474408610852 0.75 0.3955902970454402 N
0.4546939588684465 0.75 0.39559029704544035 N
0.0 0.0 0.0 N
