System
1.0
3.4530788814885396 0.0007851956748312 5.204121739761916
1.5700834957493126 3.075482432837166 5.204121739761915
0.0012821255492995 0.0007851948686491 6.245528927841229
Ce Nd N 
1 1 2 
direct
0.5000000000000003 0.4999999999999998 0.4999999999999997 Ce
0.0 0.0 0.0 Nd
0.2452461475048247 0.2452461475048245 0.24524614750438212 N
0.7547538524951758 0.7547538524951752 0.7547538524956173 N
