System
1.0
6.196114263291529 2.55089e-11 0.1771072600222131
3.09805712672835 5.9462697829165165 0.0885536349516527
-0.0014074727518916 -5.61631e-11 13.325916763715497
Ba Nb N 
8 4 12 
direct
0.12811754904356573 0.2278721624464538 0.07676253718158639 Ba
0.8718824509564348 0.7721278375535465 0.9232374628184135 Ba
0.3559897114900221 0.7721278375535526 0.5767625371815852 Ba
0.9558385904182631 0.6015678439749433 0.3559185788017105 Ba
0.5574064243931967 0.3984321560250491 0.8559185788017138 Ba
0.04416140958173712 0.39843215602505616 0.6440814211982892 Ba
0.4425935756068039 0.6015678439749511 0.14408142119828618 Ba
0.6440102885099779 0.2278721624464477 0.4232374628184145 Ba
0.26087966924655404 0.0026556623594705 0.8341973338493213 Nb
0.7391203307534467 0.9973443376405295 0.16580266615067868 Nb
0.7364646683939835 0.0026556623594614 0.665802666150678 Nb
0.2635353316060168 0.9973443376405383 0.33419733384932193 Nb
0.3129160190033863 0.8206265300793015 0.9528996713130324 N
0.15651865027081255 0.3152955970333519 0.8698740922792825 N
0.5281857526958321 0.315295597033346 0.6301259077207193 N
0.8434813497291876 0.6847044029666479 0.13012590772071786 N
0.5709216298289372 0.8581567403421608 0.7499999999999947 N
0.9919573271379606 0.0160853457240654 0.2500000000000019 N
0.008042672862039387 0.9839146542759344 0.7499999999999982 N
0.13354254908268123 0.17937346992071238 0.45289967131303094 N
0.6870839809966143 0.1793734699206986 0.04710032868696739 N
0.8664574509173191 0.8206265300792874 0.5471003286869682 N
0.47181424730416777 0.6847044029666536 0.36987409227928064 N
0.42907837017106315 0.141843259657839 0.25000000000000505 N
