System
1.0
-6.180323796419792 0.0004049301692341 0.0002212376715657
-0.0008516135256292 -6.834444798684781 -0.0010881202273737
3.088294625301686 3.4160653995936365 6.819522710035115
Pr N Cl 
4 2 6 
direct
0.9060204300912079 0.08404411029732689 0.8118595620221065 Pr
0.09397956990879208 0.9159558897026729 0.1881404379778932 Pr
0.5939573218234138 0.2721972777130335 0.1881383479720052 Pr
0.40604267817658646 0.7278027222869664 0.8118616520279948 Pr
0.2499942021533427 0.9999749033340233 -5.362268073599981e-06 N
0.7500057978466571 2.5096665977000003e-05 5.362268073500006e-06 N
0.24998767376549166 0.500010101994001 -2.1851145227599994e-05 Cl
0.7500123262345082 0.4999898980059991 2.1851145227599997e-05 Cl
0.19944594135317545 0.38665911660837576 0.3987501188814297 Cl
0.8005540586468243 0.6133408833916244 0.6012498811185704 Cl
0.3005706827083792 0.9878960365776133 0.6012490536288733 Cl
0.6994293172916209 0.012103963422386609 0.398750946371127 Cl
