System
1.0
3.7311433904392435 0.0 0.0
0.0 5.429161930288074 0.0
0.0 0.0 5.639953130077526
C N Cl 
2 2 2 
direct
0.4999998795803222 0.5000000409630019 0.5657394568331191 C
0.0 0.0 0.434260847095986 C
0.0 0.0 0.6411453528480745 N
0.4999998795803222 0.5000000409630019 0.35885495108103177 N
0.4999998795803222 0.5000000409630019 0.8526335577954605 Cl
0.0 0.0 0.1473667461336455 Cl
