System
1.0
4.954400516316094 4.0793707e-09 -1.8844989914743666
-0.7168047940364924 4.902272665811442 -1.8844989880821736
-0.0083409216410178 -0.0096496225993006 7.432949593826663
Ga H N F 
2 8 2 8 
direct
0.0 0.0 0.0 Ga
0.5 0.5000000000000001 -2.3253088971802487e-17 Ga
0.31438369971511 0.5910947445041725 0.4054784442194285 H
0.8143836997133299 0.3143836997144769 0.40547844421861967 H
0.5910947445062192 0.091094744505699 0.4054784442197307 H
0.09109474450443858 0.8143836997160036 0.40547844421892143 H
0.18561630028667017 0.6856163002855228 0.5945215557813801 H
0.6856163002848902 0.4089052554958278 0.5945215557805713 H
0.9089052554955617 0.1856163002839965 0.5945215557810781 H
0.4089052554937812 0.9089052554943012 0.5945215557802697 H
0.25 0.7500000000000001 0.49999999999999994 N
0.7500000000000001 0.25 0.49999999999999994 N
0.6812134418425059 0.1812134418413268 1.399968311900294e-12 F
0.8546578414401182 0.8546578414408722 0.7093166828793368 F
0.3546578414401182 0.3546578414408723 0.7093166828793368 F
0.14534215855988158 0.1453421585591278 0.29068331712066314 F
0.1812134418395404 0.31878655816099977 -6.391945897309071e-13 F
0.8187865581604596 0.6812134418390001 6.391822809729255e-13 F
0.318786558157494 0.8187865581586735 -1.4000191126411353e-12 F
0.6453421585598818 0.645342158559128 0.29068331712066314 F
