System
1.0
4.825330915677854 -0.0033497072623747 3e-16
-4.0237671815691005 2.6632925740261166 3e-16
-0.0 -0.0 6.9693789615165
Cr C N 
6 3 1 
direct
0.5969636728783017 0.4030363271216985 0.0 Cr
0.38905095691800323 0.6109490430819968 0.49999999999999994 Cr
0.8632279833559625 0.1367720166440373 0.16919743762032297 Cr
0.14788608095884845 0.8521139190411513 0.31578359116210175 Cr
0.8632279833559625 0.1367720166440373 0.830802562379677 Cr
0.14788608095884845 0.8521139190411513 0.6842164088378978 Cr
0.5020750117086261 0.4979249882913738 0.2572792946030792 C
0.5020750117086261 0.4979249882913738 0.7427207053969207 C
0.2442703721076334 0.755729627892367 0.0 C
0.7433368460491946 0.2566631539508055 0.49999999999999994 N
