System
1.0
0.0 0.0 -2.9865655300755685
-2.6412884652495516 -4.57484494949756 0.0
-2.641344295871075 4.574877249149797 0.0
Zr Ta N 
1 2 3 
direct
0.0 0.9999795404131125 -4.0027845318436874e-16 Zr
0.5 0.3333106303292487 0.6666600750252244 Ta
0.5 0.666650555304022 0.3333399249747756 Ta
0.0 0.49999088047260304 -2.294639552060508e-16 N
0.0 0.4999869415932889 0.5000054897055597 N
0.0 0.9999814518877294 0.49999451029444003 N
