System
1.0
3.30687286639538 0.0 0.0
-1.65343643319769 2.8638359093877264 -0.0
0.0 0.0 3.3426801345087607
S N 
1 1 
direct
0.0 0.0 0.0 S
0.3333341392686222 0.6666659082996702 0.0 N
