System
1.0
5.757576459416606 0.0064541764489463 -0.2890226177565375
-0.2217640146224127 8.120325125919123 -2.281689481846219
-0.0193870389072696 -0.1226054164134251 8.503883068645557
H C S N 
14 18 4 2 
direct
0.8666016035622885 0.891728288477278 0.6116114865198647 H
0.5554162340636609 0.9281017490686452 0.4547326819852198 H
0.9489475969904602 0.0184366930539822 0.8922982037571804 H
0.08834960818915859 0.1281459222808934 0.7731854059531134 H
0.9343079104014471 0.966120824998711 0.313042943925163 H
0.0674381353821192 0.49986167989951585 0.6947353030538275 H
0.3237934516132365 0.5119701344982109 0.9512284990156703 H
0.443081701438873 0.0576419237739093 0.3390778204243922 H
0.3416725550502582 0.774235993178994 0.2047273597281987 H
0.35980180536985873 0.8913719189446607 0.9024934949737718 H
0.6087590348310749 0.38667546905676076 0.3251707608086444 H
0.8513997243562347 0.646215965317019 0.33971632203036073 H
0.5746425466835842 0.13386438223705766 0.060435756437119396 H
0.0328220387968191 0.23556815492578506 0.44291026655503923 H
0.4830039134701316 0.7395363869375944 0.12320141544907166 C
0.6044236867759197 0.026226549064377998 0.3982811083822729 C
0.7005909796286934 0.17661888324880456 0.5265386885579916 C
0.7322351853847973 0.4322702986664893 0.7671362884710136 C
0.6957725620677252 0.8227536210053136 0.1478359192829945 C
0.6782688781855628 0.567138524676638 0.9057175555122632 C
0.921941985285072 0.41138279857923316 0.6711531870764796 C
0.9031531660974548 0.2669312895612607 0.5345688815848851 C
0.4751021485515265 0.5955377603212023 0.9865336511786241 C
0.19918682876140045 0.5831610837499469 0.4071451448921826 C
0.21308775428382687 0.19319279438930598 0.025835392072879586 C
0.24669155909341353 0.43734343982930163 0.2779616718168007 C
0.21441615392732138 0.818572321767451 0.667880082900781 C
0.44983206539693477 0.35144702086024027 0.24734652920935374 C
0.43073916327773415 0.21374060753801077 0.10408166536941581 C
0.009466264317472207 0.8095521166503987 0.5732631606910764 C
0.001811784940014003 0.6761395517651072 0.4269560401132938 C
0.12027634957968349 0.06840418153417338 0.8719067217062718 C
0.40189803363450843 0.6628688233446522 0.5733558251308297 S
0.0294147609811231 0.34494015677396356 0.12788375619191197 S
0.8842179478633254 0.7260646617947929 -0.002473396755959404 S
0.5335111988381884 0.2668411705588967 0.6905589119835773 S
0.28353817018118366 0.9363478844860467 0.8132136627495657 N
0.7661765127479331 0.9657259731853759 0.2689508312648528 N
