System
1.0
5.581425766452016 0.0004605199398294 3e-16
-2.784828474198976 4.829793746527009 3e-16
0.0 -0.0 5.229998856845968
Ga Fe N 
4 2 6 
direct
0.3332778100607496 0.3316037279731457 0.4938255125214546 Ga
0.6667221899391954 0.9983259179123619 0.4938255125214546 Ga
0.6667221899392504 0.6683962720268543 0.9938255125214547 Ga
0.33327781006080487 0.0016740820876381998 0.9938255125214547 Ga
-2.213210708004195e-14 0.6637958755963423 0.49090584516318725 Fe
2.206076518128192e-14 0.3362041244036577 0.9909058451631878 Fe
0.33480311689291 0.33546074565064465 0.870443724400554 N
0.665196883107134 0.0006576287576691 0.870443724400554 N
0.66519688310709 0.6645392543493551 0.37044372440055395 N
0.33480311689286624 0.9993423712423309 0.37044372440055395 N
4.957614225989665e-15 0.6722465326201169 0.8685566909927876 N
-5.022984603500098e-15 0.32775346737988287 0.3685566909927876 N
