System
1.0
-1.7225444209896432 -2.984169997361793 -5.81310228705e-05
-1.7230959295319541 2.984488652983079 3.494027e-10
-8.59361611457e-05 -4.93897967618e-05 -5.7784097807722326
Li Ca N 
2 1 2 
direct
0.3334332350327505 0.666716117516342 0.8856305276729617 Li
0.6665667649672495 0.33328388248365814 0.1143694723270385 Li
-3.277275160336476e-21 -2.6449574711013684e-21 0.5 Ca
0.33329634150608567 0.6666486707528524 0.243292883068396 N
0.6667036584939141 0.33335132924714783 0.7567071169316041 N
