System
1.0
6.152622283807254 0.0154723173381448 0.9408710635245793
0.8209531627071036 6.231512979132247 0.0260122356148504
0.0170646086525396 0.0037129988995919 7.001154033053279
W N Cl 
2 1 8 
direct
0.05313884528693916 0.5973462911571417 0.2318535131262597 W
0.9468611547130609 0.40265370884285884 0.7681464868737409 W
-2.4111300276933703e-17 0.5000000000000001 8.507549022151979e-19 N
0.6165597163833556 0.6162335908636307 0.776296146871908 Cl
0.888041312133088 0.3050523200704063 0.4114555406461729 Cl
0.28350038326208676 0.1987802525790983 0.6872505748249986 Cl
0.7817289602573153 0.11197259408761 0.8741085538299701 Cl
0.21827103974268433 0.8880274059123903 0.12589144617003004 Cl
0.3834402836166446 0.3837664091363688 0.2237038531280923 Cl
0.11195868786691149 0.6949476799295936 0.588544459353827 Cl
0.7164996167379124 0.801219747420902 0.31274942517500154 Cl
