System
1.0
3.3558637780756757 2.7522e-12 -0.0
-1.6779318890830477 2.90626328347127 -0.0
0.0 -0.0 8.812627771189316
Sc N Cl 
2 1 2 
direct
0.6666675871773862 0.3333338178257108 0.6346140434752909 Sc
0.3333347633006767 0.6666676356514216 0.3653858141849799 Sc
0.0 0.0 0.4999999288247423 N
0.6666675871773862 0.3333338178257108 0.1741908073212041 Cl
0.3333347633006767 0.6666676356514216 0.8258090503282732 Cl
