System
1.0
6.049463964639449 -0.0576465430657751 -0.3775301588468018
-3.4063272066624926 5.499444139512328 -2.493456988e-07
0.0232466272190546 0.0143988390377464 5.386984161587923
Mn Cr N 
6 4 8 
direct
0.3609046551308651 0.0865928721687898 0.9486824498372286 Mn
0.6390953448689922 0.7256872170378882 0.5513175501625389 Mn
0.6390953448691344 0.9134071278312101 0.0513175501627714 Mn
0.3609046551310077 0.2743127829621122 0.44868244983746103 Mn
-5.5567860992918e-13 0.6752133404635556 0.7500000000004488 Mn
5.555401527380404e-13 0.32478665953644387 0.24999999999955141 Mn
0.6844004067669186 0.488591726602413 0.1319445102702151 Cr
0.3155995932331701 0.8041913198356262 0.3680554897295275 Cr
0.68440040676683 0.1958086801643742 0.6319445102704727 Cr
0.3155995932330817 0.5114082733975868 0.8680554897297851 Cr
0.2625122073924273 0.7532116509356892 0.021121541201455592 N
0.27896415237734656 0.9927099975667029 0.6088230988435566 N
0.7210358476226972 0.7137458451897359 0.8911769011565196 N
0.7210358476226532 0.0072900024332974 0.3911769011564434 N
0.2789641523773025 0.28625415481026373 0.10882309884348032 N
0.7374877926075727 0.24678834906431094 0.978878458798544 N
0.2625122073920211 0.5093005564568029 0.5211215412018896 N
0.7374877926079789 0.49069944354319694 0.4788784587981103 N
