System
1.0
3.113162938725387 -7.7707296837e-06 2e-16
-1.5565888894981992 2.695960247793545 2e-16
-0.0 -0.0 9.54460730480053
Cr C N 
2 2 4 
direct
8.786203962300002e-06 -1.3283173578099998e-05 2.1166735e-09 Cr
8.786203962300002e-06 -1.3283173578099998e-05 0.4999999978833268 Cr
0.6666733691424813 0.33332235733339405 0.25 C
0.3333327861029872 0.6666535075494839 0.7500000000000001 C
0.6666754071959818 0.3333187789544788 0.1196959502797385 N
0.33333689731065447 0.6666562684443216 0.8803041088919832 N
0.33333689731065447 0.6666562684443216 0.6196958911080169 N
0.6666754071959818 0.3333187789544788 0.3803040497202615 N
