System
1.0
6.462371053173507 1.122476084e-07 -2.6370815829327885
-1.0761058792323221 6.372144885075027 -2.6370814847211768
0.01310250661782 0.0155008712171189 9.268919599893607
Tl H N Cl 
2 8 2 8 
direct
0.0 0.0 0.0 Tl
0.24999999999999997 0.7499999999999999 0.49999999999999994 Tl
0.6989891030363684 0.3718135138392964 0.5753282546749635 H
0.4535157408494479 0.44898910297502537 0.07532825465174119 H
0.6218135137686822 0.6263391516448531 0.07532825457750941 H
0.3736608484182356 0.54648425921942 0.9246717454457138 H
0.5510108969636314 0.37818648616070355 0.9246717453250365 H
0.7964842591505525 0.30101089702497474 0.42467174534825913 H
0.6281864862313178 0.12366084835514689 0.4246717454224907 H
0.8763391515817635 0.20351574078057968 0.5753282545542862 H
0.49999999999999994 0.49999999999999994 -1.136693309992365e-18 N
0.7499999999999999 0.24999999999999997 0.49999999999999994 N
0.5014074773537209 0.5968665855667922 0.6816106675287521 Cl
0.7485925226462786 0.1531334144332079 0.8183893324712477 Cl
0.0697968097919665 0.6652569180048922 0.8183893324058141 Cl
0.9152569180345063 0.4985925226120147 0.31838933245381273 Cl
0.8468665855962638 0.9302031901739128 0.1816106675767503 Cl
0.3347430819654931 0.25140747738798486 0.18161066754618718 Cl
0.18020319020803327 0.0847430819951079 0.6816106675941859 Cl
0.40313341440373524 0.8197968098260869 0.3183893324232497 Cl
