System
1.0
5.055433941465035 5.055433941465035 0.0
-0.0 5.055433941465035 5.055433941465035
5.055433941465035 -0.0 5.055433941465035
Sn H N Cl 
1 8 2 6 
direct
0.0 0.0 0.0 Sn
0.1909141975244787 0.4272574074265711 0.19091419752447863 H
0.19091419752447866 0.19091419752447866 0.42725740742657115 H
0.42725740742657103 0.1909141975244787 0.1909141975244787 H
0.1909141975244787 0.1909141975244787 0.1909141975244787 H
0.8090858024755218 0.5727425925734286 0.8090858024755215 H
0.8090858024755216 0.8090858024755215 0.5727425925734289 H
0.5727425925734286 0.8090858024755215 0.8090858024755216 H
0.8090858024755216 0.8090858024755215 0.8090858024755216 H
0.7499999999999999 0.75 0.7499999999999999 N
0.25 0.24999999999999997 0.25 N
0.7560903723259381 0.7560903723259381 0.24390962767406207 Cl
0.24390962767406207 0.7560903723259381 0.7560903723259382 Cl
0.24390962767406202 0.2439096276740619 0.7560903723259382 Cl
0.2439096276740619 0.7560903723259382 0.24390962767406196 Cl
0.7560903723259382 0.24390962767406194 0.243909627674062 Cl
0.7560903723259381 0.24390962767406202 0.7560903723259381 Cl
