System
1.0
2.4327051218993883 5.453918993457235 -0.1696772943201865
-2.4327051218993883 5.453918993457235 0.1696772943201865
-0.2717671483075181 0.0 9.588276366552414
H C N Cl 
8 2 10 2 
direct
0.3231697390908261 0.9664340940248597 0.0542270479049761 H
0.03356590597514047 0.6768302609091738 0.5542270479049757 H
0.522028472717227 0.9300126582118461 0.9105940252738449 H
0.06998734178815287 0.4779715272827725 0.4105940252738445 H
0.8198337349722565 0.48815826310394805 0.8038203657639513 H
0.5118417368960513 0.18016626502774308 0.3038203657639527 H
0.7540899321611879 0.23651632978033907 0.8205192161436714 H
0.7634836702196605 0.24591006783881256 0.3205192161436709 H
0.5170000602112679 0.5968825192291171 0.9405810058316758 C
0.40311748077088444 0.48299993978873224 0.4405810058316765 C
0.576971766526026 0.2833178475249619 0.35065665613476776 N
0.7166821524750382 0.42302823347397367 0.8506566561347683 N
0.1400733615115346 0.5690092548351463 0.465991522218901 N
0.4309907451648541 0.8599266384884656 0.9659915222189008 N
0.21087774354541847 0.04453004180709249 0.6239566206068601 N
0.4034920871138351 0.4840730225088509 0.007290980292256 N
0.33869479014851367 0.8325039007839017 0.5662035047953984 N
0.16749609921609906 0.6613052098514881 0.066203504795399 N
0.5159269774911491 0.5965079128861661 0.5072909802922563 N
0.9554699581929068 0.7891222564545822 0.1239566206068604 N
0.8341133998009389 0.8551081559889698 0.7466600550337097 Cl
0.14489184401103014 0.16588660019906099 0.24666005503370952 Cl
