System
1.0
4.869673495028645 -0.0170927574698375 -1.4750479411590005
-2.6524426799207883 4.049365806225747 -1.5674720247337504
0.0872846656486695 0.0170927459095644 5.087422785183123
Ag N 
2 6 
direct
0.49999999999999994 0.24999999999999997 0.7499999999999999 Ag
0.49999999999999994 0.7500000000000001 0.25000000000000006 Ag
0.28853735306093675 0.1706640176181552 0.11787433545505557 N
0.05278968217200512 0.6706640175599962 0.3821256646085012 N
0.0 0.0 0.0 N
-4.735230708694931e-17 0.5 0.49999999999999994 N
0.7114626469390631 0.8293359823818444 0.8821256645449441 N
0.9472103178279947 0.32933598244000395 0.6178743353914983 N
