System
1.0
5.992449889950003 0.0178250259786616 -0.0061121609138563
-0.6677847876144173 7.193822595330173 0.0066138331723257
-2.08325726962552 -2.9520780143211844 7.952090862676711
Sr Ga N 
6 6 10 
direct
0.6680930557849077 0.8629461666714953 0.8730617767335899 Sr
0.3319069442150922 0.1370538333285045 0.12693822326641022 Sr
0.18315645196233257 0.5911908903712075 0.39216901750425953 Sr
0.6555005445232169 0.6538928088502276 0.20139457187414714 Sr
0.34449945547678307 0.34610719114977223 0.7986054281258527 Sr
0.8168435480376671 0.40880910962879224 0.6078309824957406 Sr
0.12472556753118585 0.8768289372874346 0.7169511022811565 Ga
0.8752744324688143 0.12317106271256552 0.2830488977188437 Ga
0.908040907815862 0.3154857970798893 0.9727149761583823 Ga
0.28983996271827245 0.0467118677567197 0.43287430297843527 Ga
0.7101600372817274 0.9532881322432802 0.567125697021565 Ga
0.0919590921841377 0.684514202920111 0.027285023841617503 Ga
0.23499354652819673 0.4721063374627888 0.09551520758797491 N
0.6114867783752446 0.05211311504999362 0.3800186572849585 N
0.7391013671775124 0.225062266025635 0.10785888753954231 N
0.04283333872550964 0.8910031255021762 0.22324177373764714 N
0.15917269272289472 0.28994308026276033 0.4748317852430597 N
0.9571666612744903 0.10899687449782354 0.776758226262353 N
0.26089863282248743 0.774937733974365 0.8921411124604578 N
0.3885132216247553 0.9478868849500066 0.6199813427150412 N
0.7650064534718028 0.5278936625372114 0.9044847924120252 N
0.8408273072771046 0.7100569197372398 0.5251682147569405 N
