System
1.0
4.003805005555853 -5.57784197805e-05 -4.41682203377e-05
9.19841924495e-05 5.28919635394886 7.0336502591e-05
-6.43868749122e-05 3.52966248496e-05 5.289157926225118
Cr Ge N 
6 2 2 
direct
0.9157058394959693 0.7049117651242944 0.7950812376921699 Cr
0.9157088204273742 0.29508610168014937 0.2049188281450524 Cr
0.49998976071030926 7.746178719999996e-07 7.434639818999992e-07 Cr
0.084297999439342 0.7950811208293486 0.29508669727175285 Cr
0.0843025922211538 0.2049138982253033 0.7049159876546074 Cr
0.5000021872772245 0.5000001015689126 0.49999787584309935 Cr
0.4390413930833398 0.5000063797097476 2.6785865257999987e-06 Ge
0.5609557600448644 -4.2581955058e-06 0.499998652705277 Ge
5.2491322610999985e-06 0.5000022990600734 0.4999994361005863 N
-8.6018318265e-06 1.8173798120999999e-06 -3.1374630498000003e-06 N
