System
1.0
5.919338121358943 0.021668534125992 -1.34318617199347
-3.936236338684973 5.5556376435332036 2.009537791e-07
-0.0104864044259288 -0.0074297504908297 12.082302899514739
Ca Pt N 
10 4 12 
direct
-3.6561546952772585e-13 0.37924709994249794 0.7499999999998671 Ca
3.6550962236278964e-13 0.6207529000575018 0.2500000000001331 Ca
0.1141098397430322 0.8046916919234063 0.0010054737753427939 Ca
0.8858901602570095 0.6905828521808658 0.4989945262246963 Ca
0.8858901602569674 0.1953083080765933 0.9989945262246573 Ca
0.11410983974299069 0.30941714781913465 0.5010054737753042 Ca
0.33261442382403666 0.0337876253929714 0.7347582476046393 Ca
0.6673855761755751 0.7011732015683383 0.7652417523951341 Ca
0.6673855761759632 0.966212374607029 0.2652417523953607 Ca
0.3326144238244246 0.2988267984316612 0.2347582476048655 Ca
0.5274130145901093 0.7093404176238727 0.040448199075510415 Pt
0.47258698540979627 0.18192741303405288 0.45955180092451925 Pt
0.5274130145902037 0.8180725869659469 0.5404481990754807 Pt
0.47258698540989075 0.2906595823761275 0.9595518009244897 Pt
0.08808889794071105 0.9967245197424232 0.3735781645006076 N
0.2551001859238237 0.6730150934591145 0.6287144423947975 N
0.7448998140763482 0.41791590753552116 0.8712855576051425 N
0.744899814076176 0.32698490654088513 0.371285557605203 N
0.255100185923652 0.5820840924644788 0.1287144423948575 N
0.5800444203426389 0.32811498037126113 0.6152533066085528 N
0.41995557965793945 0.7480705600283007 0.8847466933915843 N
0.4199555796573612 0.6718850196287387 0.3847466933914471 N
0.5800444203420603 0.2519294399716993 0.11525330660841569 N
0.9119111020592885 0.003275480257576999 0.6264218354993919 N
0.0880888979410268 0.09136437819762841 0.873578164500634 N
0.9119111020589732 0.9086356218023717 0.12642183549936623 N
