System
1.0
-2.8513466459296906 -2.8513466459296906 -0.0
-2.8513466459296906 -0.0 -2.8513466459296906
-0.0 -2.8513466459296906 -2.8513466459296906
Ba N 
1 1 
direct
0.0 0.0 0.0 Ba
0.49999999999999994 0.5 0.5000000000000001 N
