System
1.0
5.3220205152971705 0.0030176569541283 0.7065490389229836
1.659893784190882 4.774605653215888 1.8218653961907618
0.0022570489016404 0.001638320217632 8.247278362297326
Mg V N 
8 2 8 
direct
0.7279094363119397 0.6265918707676699 0.2039525099475809 Mg
0.2720905636880603 0.3734081292323231 0.796047490052419 Mg
0.7544190330086702 0.24584982905379282 0.9981098746520985 Mg
0.24558096699132964 0.7541501709462071 0.0018901253478943666 Mg
0.7439268845713397 0.46841267723639923 0.5805247480731873 Mg
0.25607311542866 0.5315873227636008 0.4194752519268126 Mg
0.25293172040362827 0.9443519386726705 0.5931733627993819 Mg
0.7470682795963716 0.055648061327329704 0.406826637200618 Mg
0.27152097267898895 0.15678530427593604 0.2337890167525955 V
0.7284790273210109 0.8432146957240644 0.7662109832474046 V
0.9922265727970905 0.6970814455507375 0.6177608462036379 N
0.007773427202909488 0.30291855444926274 0.3822391537963619 N
0.8345062503165097 0.8513171268818203 0.9632705384284631 N
0.16549374968349018 0.1486828731181799 0.036729461571536705 N
0.5131108715313175 0.6126679929055625 0.803858837104613 N
0.4868891284686824 0.38733200709443744 0.196141162895387 N
0.49087986459180705 0.8167260794540524 0.3798123526855229 N
0.509120135408193 0.18327392054594785 0.6201876473144768 N
