System
1.0
9.316270711654507 -1.1641991e-09 -3.293799405486241
-4.658135356835482 8.068127093973688 -3.293799405486241
2.0164519e-09 3.4925971e-09 9.881397227867007
Ca N 
24 16 
direct
0.4557354296402034 0.46320716491237984 0.22752222754820237 Ca
0.22821320209200183 0.2724777724518063 0.7356839373641864 Ca
0.03679283508762233 0.4925292647278222 0.7643160626358129 Ca
0.4925292647278133 0.7643160626358046 0.036792835087616826 Ca
0.7356839373641796 0.22821320209199358 0.2724777724518013 Ca
0.007470735272179502 0.04426457035979809 0.2717867979079922 Ca
0.4632071649123856 0.22752222754820078 0.4557354296402138 Ca
0.9632071649123775 0.5074707352721776 0.23568393736418725 Ca
0.2717867979079906 0.0074707352721707 0.044264570359786815 Ca
0.7717867979079983 0.7275222275481938 0.2643160626358133 Ca
0.7724777724518056 0.5442645703597966 0.536792835087613 Ca
0.5442645703597967 0.53679283508762 0.7724777724517977 Ca
0.23568393736418092 0.9632071649123721 0.5074707352721759 Ca
0.7275222275481873 0.2643160626358059 0.7717867979079963 Ca
0.9557354296402022 0.7282132020920009 0.9925292647278278 Ca
0.5074707352721868 0.2356839373641953 0.9632071649123831 Ca
0.2643160626358205 0.7717867979080063 0.7275222275481988 Ca
0.7282132020920096 0.9925292647278294 0.9557354296402134 Ca
0.22752222754819454 0.455735429640203 0.46320716491238717 Ca
0.5367928350876146 0.7724777724517993 0.5442645703597861 Ca
0.764316062635819 0.0367928350876277 0.492529264727824 Ca
0.2724777724518128 0.7356839373641938 0.22821320209200402 Ca
0.04426457035979792 0.2717867979079988 0.007470735272172292 Ca
0.9925292647278205 0.9557354296402018 0.7282132020920078 Ca
0.039569805839476904 0.7500000000000016 0.7895698058394779 N
0.7895698058394736 0.0395698058394736 0.7500000000000009 N
0.4604301941605232 0.24999999999999828 0.7104301941605221 N
0.7104301941605264 0.4604301941605262 0.24999999999999908 N
0.7500000000000017 0.7895698058394771 0.03956980583947787 N
0.7500000000000017 0.2895698058394769 0.539569805839478 N
0.9604301941605232 0.24999999999999828 0.2104301941605222 N
0.5395698058394768 0.7500000000000016 0.2895698058394778 N
0.2895698058394736 0.5395698058394734 0.7500000000000008 N
0.2499999999999983 0.210430194160523 0.960430194160522 N
-4.6274985271581415e-18 0.5 4.118893602555273e-18 N
0.5 0.0 4.118893602555273e-18 N
0.0 0.0 0.5 N
0.5 0.5 0.5 N
0.21043019416052655 0.9604301941605266 0.24999999999999917 N
0.24999999999999828 0.7104301941605228 0.4604301941605222 N
