System
1.0
3.1581569876432423 0.0190529350944604 -11.053114765742329
-0.0436390519111614 3.1579129509984654 -11.053114765742329
-0.0186784215544176 -0.0190529350958756 11.49543181876007
Hf Nb C N 
1 4 1 4 
direct
0.0 0.0 0.0 Hf
0.4041130133857141 0.4041130133857141 4.48302298982365e-15 Nb
0.7949078468813142 0.7949078468813142 -5.932871355065225e-15 Nb
0.2050921531186859 0.20509215311868587 5.8870980936004686e-15 Nb
0.5958869866142859 0.5958869866142859 -4.471037924401711e-15 Nb
0.5 0.5 9.43609395498945e-17 C
0.8979700675537956 0.8979700675537956 -1.520709036227078e-15 N
0.3038388108016996 0.3038388108016996 2.423317850784287e-15 N
0.6961611891983006 0.6961611891983007 -2.415827136673222e-15 N
0.10202993244620448 0.1020299324462045 1.569529449421004e-15 N
