System
1.0
6.619844128900682 -3.5081073732e-05 5.012653001e-06
-3.3099524666777196 5.732911179390072 -1.0428266796e-06
3.8731063567e-06 1.4994296138e-06 5.599800460926707
Rb Sn H N 
2 1 12 6 
direct
0.6666659052317042 0.3333326437339816 0.7931691399047446 Rb
0.3333340947682952 0.6666673562660189 0.206830860095256 Rb
0.0 0.0 0.0 Sn
0.2655295542715589 0.2077495349910102 0.3942479863521959 H
0.7922526298945406 0.0577794184143564 0.3942468114519256 H
0.9422194981353504 0.7344711866089969 0.3942453653340412 H
0.7344704457284404 0.7922504650089904 0.605752013647804 H
0.05778050186464989 0.2655288133910023 0.6057546346659591 H
0.2077473701054593 0.9422205815856434 0.6057531885480737 H
0.8621436022500667 0.2864638623673711 0.2266887776540059 H
0.7135308611865493 0.5756768718912679 0.22668858826702493 H
0.5756799484591817 0.8621425205361128 0.7733102146468832 H
0.13785639774993297 0.7135361376326294 0.773311222345994 H
0.2864691388134502 0.424323128108732 0.7733114117329756 H
0.4243200515408186 0.1378574794638876 0.226689785353117 H
0.7913953036795135 0.1079366189712337 0.22065663485130482 N
0.1079428476330718 0.3165473792243411 0.779342082364667 N
0.20860469632048712 0.8920633810287668 0.7793433651486954 N
0.6834537490934545 0.791391290037029 0.7793431910703058 N
0.8920571523669281 0.6834526207756587 0.22065791763533293 N
0.31654625090654576 0.2086087099629711 0.2206568089296941 N
