System
1.0
6.098924328402337 0.0020126042972022 0.0
-2.5826023045327955 4.981194560230922 0.0
-0.0 -0.0 4.915847750994342
Si Se N 
4 2 4 
direct
0.6246744049016033 0.1660400052965727 0.909653344361037 Si
0.3753255950986298 0.5413656003952468 0.909653344361037 Si
0.3753255950983969 0.8339599947034271 0.4096533443610369 Si
0.6246744049013703 0.4586343996047526 0.4096533443610369 Si
-1.606340320437027e-13 0.7819988981674904 0.2635124332975877 Se
1.6057920879301296e-13 0.21800110183250956 0.7635124332975879 Se
0.5553657204474981 0.1500555464836061 0.2553909389901691 N
0.4446342795524293 0.5946898260366976 0.2553909389901691 N
0.4446342795525021 0.8499444535163937 0.755390938990169 N
0.5553657204475706 0.40531017396330216 0.755390938990169 N
