System
1.0
1.8399187443261418 -3.1868314792657277 0.0
1.8399187443261418 3.1868314792657277 0.0
0.0 0.0 12.689521297877855
Ba Ce N 
2 2 4 
direct
0.33333300000000327 0.6666669999999968 0.24999999999999997 Ba
0.6666669999999968 0.3333330000000032 0.7499999999999999 Ba
0.0 0.0 0.0 Ce
0.0 0.0 0.49999999999999994 Ce
0.33333300000000327 0.6666669999999968 0.5963595180833505 N
0.6666669999999968 0.3333330000000032 0.09635951808335048 N
0.33333300000000327 0.6666669999999968 0.9036404819166495 N
0.6666669999999968 0.3333330000000032 0.4036404819166494 N
