System
1.0
2.5780818106988557 -0.0 0.0
-0.0 2.5780818106988557 0.0
-0.0 0.0 4.916710787436865
Ru C N 
1 2 1 
direct
0.4999992681987138 0.4999992681987138 0.4999999771113934 Ru
0.0 0.4999992681987138 0.1849123405519651 C
0.4999992681987138 0.0 -0.1849123863578201 C
0.0 0.0 0.0 N
