System
1.0
4.352989804798566 -7.539598396304334 -0.0
4.352989557063368 7.5395985393343325 -0.0
0.0 0.0 5.396037189232235
Sr Co C N 
6 2 6 6 
direct
0.3705593614606504 0.30674127202196666 0.75 Sr
0.6932587279784046 0.06381808943859646 0.75 Sr
0.30674127202159573 0.9361819105614039 0.24999999999999997 Sr
0.6294406385393501 0.6932587279780336 0.24999999999999997 Sr
0.9361819105609458 0.629440638539437 0.75 Sr
0.06381808943905429 0.3705593614605632 0.24999999999999997 Sr
0.3333330000000032 0.6666669999999968 0.75 Co
0.6666669999999968 0.3333330000000032 0.24999999999999997 Co
0.6951614424934099 0.1469568722407489 0.24999999999999997 C
0.30483855750658967 0.8530431277592512 0.75 C
0.8530431277579893 0.5482045702503651 0.24999999999999997 C
0.5482045702513993 0.6951614424911137 0.75 C
0.1469568722420108 0.4517954297496349 0.75 C
0.45179542974860043 0.3048385575088858 0.24999999999999997 C
0.977965225339746 0.7035938761026421 0.24999999999999997 N
0.02203477466025359 0.2964061238973576 0.75 N
0.7035938761022257 0.7256286507643602 0.75 N
0.29640612389777393 0.2743713492356396 0.24999999999999997 N
0.7256286507624796 0.022034774661718062 0.24999999999999997 N
0.2743713492375204 0.9779652253382818 0.75 N
