System
1.0
3.605723369302997 0.0 0.0
0.0 3.6056201044032075 0.0
0.0 0.0 4.9738813824311805
Mn Zn N 
2 1 2 
direct
0.5 0.5 0.0034843463318787 Mn
0.5 0.5 0.4965202892784177 Mn
0.0 0.0 0.7499955735602372 Zn
0.0 0.5 0.49558692169427754 N
0.5 0.0 0.0044138691351862 N
