System
1.0
5.8006985224602765 -0.0 -0.0
-0.0 5.8006985224602765 -0.0
-0.0 -0.0 5.8006985224602765
Nd Tl N 
3 1 1 
direct
0.5 0.0 0.5 Nd
0.0 0.5 0.5 Nd
0.5 0.5 0.0 Nd
0.5 0.5 0.5 Tl
0.0 0.0 0.0 N
