System
1.0
0.0 3.563663432314999 0.4408750926296183
3.6398332435930993 0.0 0.0
0.0 -2.1586465923853524 -11.686053341526595
Na Li N 
3 3 2 
direct
0.24991169250857947 0.0 0.8119156525355241 Na
0.11829880444301888 0.0 0.1816622502811732 Na
0.9104931710484443 0.0 0.47287647970783864 Na
0.8993866244968612 0.0 -0.0380008951963499 Li
0.4235158918263678 0.5 -0.013558426249521504 Li
0.6251666673121244 0.5 0.6870118278524243 Li
0.4829724607562354 0.0 0.04584944230979909 N
0.7902556876083653 0.5 0.8522436687591036 N
