System
1.0
-0.0 5.207956177876096 5.207956177876096
5.207956177876096 0.0 5.207956177876096
5.207956177876096 5.207956177876096 -0.0
Sr Sn N F 
6 2 1 1 
direct
0.24239811377281428 0.7576018862271855 0.7576018862271855 Sr
0.24239811377281434 0.7576018862271855 0.2423981137728144 Sr
0.7576018862271855 0.24239811377281428 0.7576018862271855 Sr
0.7576018862271855 0.7576018862271855 0.2423981137728143 Sr
0.24239811377281437 0.24239811377281437 0.7576018862271854 Sr
0.7576018862271855 0.24239811377281434 0.2423981137728144 Sr
0.24999999999999997 0.25 0.25 Sn
0.75 0.75 0.75 Sn
0.0 0.0 0.0 N
0.49999999999999994 0.5 0.5 F
