System
1.0
3.6435980194776056 3.691907467490398 0.0172569476702934
-3.6435980194776056 3.691907467490398 -0.0172569476702934
0.0289118062036605 0.0 6.224908740562983
Li Si Ni O 
5 2 1 8 
direct
0.17250688667709282 0.7929460113091746 0.490914069269855 Li
0.6921583168444808 0.6921583168444809 0.75 Li
0.33137663807959855 0.33137663807959855 0.25 Li
0.6811850745880449 0.6811850745880449 0.25 Li
0.7929460113091745 0.17250688667709288 0.0090859307301453 Li
0.17016926249185543 0.8168210101188512 0.0046261055429272 Si
0.8168210101188512 0.1701692624918555 0.4953738944570725 Si
0.32225236247369343 0.3222523624736933 0.75 Ni
0.30353022124659534 0.6885429280932065 0.7799474386186234 O
0.3046075120492201 0.699669431854781 0.2167823788356932 O
0.1392256959931388 0.22532689082700685 0.5094925650073383 O
0.8012035178992185 0.8584772394540365 0.5010625692536788 O
0.2253268908270068 0.1392256959931388 0.9905074349926618 O
0.8584772394540364 0.8012035178992185 0.9989374307463212 O
0.6885429280932066 0.3035302212465953 0.7200525613813766 O
0.6996694318547811 0.30460751204922004 0.2832176211643068 O
