System
1.0
0.0 4.901238957439205 0.0116970274961769
8.474948651551284 0.0 0.0
0.0 -2.346289021084731 -6.683319410513675
Li P W O 
2 4 2 14 
direct
0.8169247128126522 0.3906891034113095 0.3334868262957315 Li
0.18307528718734736 0.8906891034113098 0.6665131737042691 Li
0.1976848330486708 0.9605968114064591 0.0764962705800507 P
0.4081618559026911 0.5688535905147168 0.5340425082248674 P
0.5918381440973159 0.0688535905147169 0.4659574917751331 P
0.8023151669513356 0.4605968114064591 0.9235037294199497 P
0.7865102699407371 0.7455725679478371 0.2729966939193167 W
0.21348973005926292 0.24557256794783694 0.7270033060806833 W
0.1292051873726885 0.04311155094601711 0.8740934020000765 O
0.07142818918964096 0.4295921495474915 0.8686049277907735 O
0.7917904111175624 0.2131219321742338 0.5056971690728685 O
0.7593178878535297 0.913221426833734 0.4868071752793555 O
0.3929925479259896 0.0643394160201342 0.5927050170039995 O
0.607007452074011 0.5643394160201338 0.407294982996 O
0.8707948126273115 0.5431115509460172 0.1259065979999236 O
0.20820958888243754 0.713121932174234 0.4943028309271312 O
0.9285718108103587 0.9295921495474917 0.1313950722092261 O
0.6051347660962657 0.589058216365014 0.7647994958125853 O
0.3948652339037343 0.089058216365013 0.2352005041874149 O
0.3746902624113345 0.8109972348330554 0.0819620537004841 O
0.2406821121464706 0.4132214268337338 0.5131928247206449 O
0.6253097375886654 0.3109972348330561 0.918037946299516 O
