System
1.0
5.823825414398398 5.461008e-10 3.0729155834911546
1.910219567372666 5.884310981146953 3.4348789490466185
-0.0110951775377257 0.0079585469381388 7.076175546382273
Mn Nb O 
2 6 12 
direct
0.7479968767544998 -1.0000016939818064e-14 1.223338638989449e-14 Mn
0.2520031232455005 1.0000016339571349e-14 -1.222110934483232e-14 Mn
0.22360295190952478 0.4973759969475036 0.055417099233903734 Nb
0.2010680508644474 0.500000000000174 0.4999999999997858 Nb
0.7989319491355525 0.49999999999982614 0.5000000000002142 Nb
0.22360295190895957 0.0554170992341642 0.4973759969475278 Nb
0.7763970480910409 0.944582900765836 0.5026240030524721 Nb
0.7763970480904749 0.5026240030524963 0.9445829007660964 Nb
0.64641861740339 0.8535813825964237 0.8535813825967321 O
0.3535813825966099 0.1464186174035762 0.14641861740326795 O
0.1437714202702272 0.8298410881693898 0.43901335501830563 O
0.4126258634579645 0.5609866449816509 0.17015891183057993 O
0.1437714202701365 0.43901335501856714 0.8298410881691901 O
0.5873741365421269 0.8298410881691718 0.4390133550185354 O
0.8562285797297726 0.17015891183061 0.5609866449816943 O
0.5873741365420357 0.43901335501834904 0.8298410881694199 O
0.8562285797298639 0.5609866449814326 0.1701589118308101 O
0.4126258634578736 0.17015891183082832 0.5609866449814643 O
0.8580162522763422 0.14198374772379968 0.1419837477235714 O
0.14198374772365774 0.8580162522762004 0.8580162522764285 O
