System
1.0
2.7224253428257463 -0.0007000668561016 -4.720846511480886
-0.0078875697763846 10.975970316654767 -0.0056585639207994
2.207793571015828 0.004541459273904 4.4198688279608405
V O F 
4 4 12 
direct
0.0 0.0 0.0 V
-5.582806333831404e-20 0.5 1.6118873476967107e-19 V
0.5761019293669222 0.24998043064858422 -8.960608649553919e-05 V
0.42389807063307733 0.7500195693514158 8.960608649580503e-05 V
0.2296590875368788 0.8709284638946564 3.005141484180934e-05 O
0.7705991717577025 0.37075039124645387 -0.0002146744981264005 O
0.22940082824229832 0.6292496087535462 0.00021467449812647354 O
0.7703409124631216 0.12907153610534414 -3.0051414841907842e-05 O
0.7848337893263887 3.59800675706e-05 0.5696351978636481 F
0.25009353234445325 0.10987929348295808 9.04912508797021e-05 F
0.7343432592423629 0.7500186277174578 0.40070239857672335 F
0.6664043642427817 0.2500608575005189 0.40051668705751087 F
0.33359563575721857 0.7499391424994813 0.5994833129424896 F
0.21516621067361175 -3.59800675705e-05 0.4303648021363516 F
0.7499064676555469 0.8901207065170419 -9.049125087999656e-05 F
0.21520754323193012 0.4998973788671149 0.4303565213737066 F
0.7847924567680702 0.5001026211328841 0.5696434786262935 F
0.2503172802527982 0.39032485506072684 -0.00014746876613178336 F
0.26565674075763723 0.24998137228254216 0.5992976014232769 F
0.7496827197472022 0.6096751449392731 0.00014746876613190273 F
