System
1.0
4.906647589076959 -6.3262828e-09 -1.4584452961777852
-0.4335060706185928 4.887459392460971 -1.4584452878871252
0.0026416451668589 0.0028854010970152 8.99182635135542
K Br O 
4 2 1 
direct
0.1556101429394406 0.1556101429395426 0.3112202858789445 K
3.8945307678416436e-18 0.5 5.51913585301785e-19 K
0.8443898570605592 0.8443898570604572 0.6887797141210554 K
0.5 -6.420426777148239e-22 5.51913585301785e-19 K
0.3558352477277053 0.3558352477266246 0.7116704954547473 Br
0.6441647522722944 0.6441647522733752 0.28832950454525264 Br
0.0 0.0 0.0 O
