System
1.0
10.44137344532417 -1.5972971e-09 -3.69158371576149
-5.220686724045387 9.042495448601787 -3.6915837157614892
2.766599e-09 4.7918905e-09 11.074749162926652
Ca Si Bi O 
12 12 8 48 
direct
0.37500000000000006 0.75 0.12499999999999997 Ca
0.25 0.375 0.12499999999999997 Ca
0.625 0.875 0.75 Ca
0.875 0.625 0.25 Ca
0.625 0.25 0.875 Ca
0.7500000000000001 0.625 0.875 Ca
0.25 0.875 0.625 Ca
0.875 0.75 0.6250000000000001 Ca
0.12500000000000003 0.375 0.75 Ca
0.375 0.125 0.25 Ca
0.125 0.25 0.375 Ca
0.75 0.125 0.3750000000000001 Ca
0.37500000000000006 0.625 0.75 Si
0.25000000000000006 0.625 0.37500000000000006 Si
0.6250000000000001 0.75 0.375 Si
0.8749999999999999 0.25 0.12500000000000003 Si
0.12500000000000003 0.875 0.24999999999999997 Si
0.75 0.375 0.625 Si
0.75 0.875 0.125 Si
0.12500000000000003 0.75 0.875 Si
0.625 0.375 0.25 Si
0.375 0.25 0.625 Si
0.25 0.125 0.875 Si
0.8749999999999999 0.125 0.75 Si
0.5 0.5 1.0272616191348551e-17 Bi
0.5 0.0 3.289188371130319e-17 Bi
0.5 0.5 0.5 Bi
0.5 0.0 0.5 Bi
-9.29015952368016e-18 0.5 0.5 Bi
0.0 0.0 0.5 Bi
-9.29015952368016e-18 0.5 -2.2619267519954638e-17 Bi
0.0 0.0 0.0 Bi
0.9826066512822315 0.7107711302895946 0.10939146201490091 O
0.873215189267402 0.3906085379852485 0.1013796682747661 O
0.7718365209924996 0.3986203317251077 0.7892288697103799 O
0.7718365209926801 0.8732151892674338 0.9826066512822645 O
0.39862033172532363 0.7892288697105001 0.7718365209926564 O
0.3906085379851272 0.7892288697104018 0.5173933487177365 O
0.7892288697104077 0.7718365209925844 0.39862033172523503 O
0.7281634790073205 0.7107711302895037 0.10137966827470368 O
0.7107711302895935 0.1093914620147812 0.9826066512822313 O
0.6267848107325966 0.7281634790073861 0.5173933487177675 O
0.10137966827467608 0.8732151892672836 0.3906085379850979 O
0.7281634790074999 0.517393348717955 0.626784810732652 O
0.39060853798523065 0.1013796682748665 0.8732151892673516 O
0.10939146201476978 0.9826066512820709 0.7107711302896165 O
0.6267848107326807 0.3986203317252579 0.10939146201486791 O
0.5173933487178658 0.3906085379852877 0.7892288697103814 O
0.8732151892673208 0.9826066512821101 0.7718365209925957 O
0.3986203317251383 0.1093914620146826 0.6267848107326212 O
0.7892288697104123 0.5173933487178638 0.390608537985133 O
0.9826066512821338 0.7718365209924934 0.8732151892673754 O
0.10137966827486213 0.7281634790075364 0.7107711302896219 O
0.5173933487177691 0.6267848107326217 0.7281634790073447 O
0.27183652099267963 0.2892288697104964 0.8986203317252965 O
0.21077113028959243 0.2281634790074157 0.601379668274765 O
0.3732151892674034 0.2718365209926141 0.48260665128223235 O
0.27183652099250005 0.48260665128204505 0.3732151892673481 O
0.01739334871776863 0.2892288697104053 0.8906085379850991 O
0.1267848107325978 0.6093914620147516 0.898620331725234 O
0.22816347900750042 0.6013796682748925 0.21077113028962008 O
0.2281634790073199 0.1267848107325663 0.017393348717735607 O
0.6013796682746764 0.2107711302894998 0.22816347900734374 O
0.6093914620148728 0.2107711302895985 0.4826066512822636 O
0.7107711302895866 0.1013796682747679 0.7281634790074034 O
0.8906085379851274 0.373215189267339 0.6013796682747046 O
0.2892288697104135 0.8986203317252323 0.271836520992597 O
0.8986203317251379 0.2718365209924637 0.28922886971037803 O
0.017393348717866304 0.2281634790075066 0.1267848107326246 O
0.21077113028958802 0.482606651282136 0.6093914620148668 O
0.6013796682748618 0.8906085379853174 0.3732151892673788 O
0.1267848107326793 0.0173933487178898 0.22816347900740422 O
0.48260665128213415 0.6093914620147124 0.21077113028961844 O
0.37321518926731945 0.601379668274742 0.8906085379851321 O
0.8906085379852302 0.0173933487179291 0.28922886971038353 O
0.6093914620147696 0.8986203317251337 0.12678481073264852 O
0.10939146201487232 0.6267848107326612 0.3986203317252953 O
0.8986203317253242 0.1267848107327165 0.609391462014902 O
0.28922886971040623 0.8906085379852188 0.01739334871776853 O
0.482606651282231 0.3732151892673783 0.2718365209926554 O
