System
1.0
4.938259590512187 -0.007684740947908 0.001638289780755
-2.46215285579416 4.899450495581654 -0.0243148333487783
-0.0041034171535111 -1.6845308753714574 6.37158062278282
Li Mn P O 
2 2 2 8 
direct
0.0625933433192429 0.0012129550344742283 0.4986475993377233 Li
0.0316265456247524 0.0013467647556933999 -0.0014377384339847997 Li
0.35558725768406807 0.7109024996766686 0.2734767795333894 Mn
0.6460809622144889 0.29188703264254307 0.7234358160022278 Mn
0.3169832867469242 0.6505949949700592 0.7698775672756363 P
0.6676961921794047 0.3521530384193301 0.2270305941328315 P
0.7486866955138257 0.6689824063574623 0.3270883074728214 O
0.3053429905849228 0.8352740776772705 0.6233283395145005 O
0.21149274516566244 0.7327441324614506 0.9834734717665342 O
0.6470513312862674 0.6905383313227742 0.7924419042029299 O
0.9578329819151769 0.31225175634502783 0.20443396221713867 O
0.4800609785931104 0.2700231872602769 0.0134437077256024 O
0.47135993669069265 0.16747091662132677 0.3735924191993464 O
0.08110275248145887 0.3337689064556341 0.6698172700533108 O
