System
1.0
6.26412109086466 0.0 0.0
0.0 6.283414817956198 0.0
0.0 0.0 10.631394836064656
Hg N 
4 24 
direct
0.7626029393906282 0.7653721113943049 0.9648400910316272 Hg
0.23739706060937207 0.2653721113943047 0.0351599089683723 Hg
0.23739706060937207 0.7653721113943049 0.4648400910316274 Hg
0.7626029393906282 0.2653721113943047 0.5351599089683728 Hg
0.9474477541855552 0.6189128075722699 0.41743989623473454 N
0.6088218666321366 0.2704327778368859 0.8821172152208545 N
0.8817582748797643 0.1191010186671593 0.19000569601487347 N
0.8043021313771477 0.6056215240609003 0.21164605402247097 N
0.1182417251202355 0.6191010186671593 0.8099943039851255 N
0.5285802591945988 0.8843361074117949 0.5390806685177545 N
0.052552245814445 0.11891280757226941 0.5825601037652662 N
0.47141974080539434 0.38433610741179514 0.4609193314822465 N
0.5285802591945988 0.38433610741179514 0.9609193314822455 N
0.9474477541855552 0.11891280757226941 0.08256010376526568 N
0.6088218666321366 0.7704327778368856 0.6178827847791455 N
0.1956978686228528 0.10562152406090002 0.7883539459775287 N
0.3047369371091598 0.1672246530566947 0.3073450772917166 N
0.3047369371091598 0.6672246530566942 0.1926549227082835 N
0.052552245814445 0.6189128075722699 0.9174398962347337 N
0.3911781333678631 0.2704327778368859 0.38211721522085496 N
0.1182417251202355 0.1191010186671593 0.6900056960148744 N
0.1956978686228528 0.6056215240609003 0.7116460540224713 N
0.4714197408053943 0.8843361074117949 0.03908066851775349 N
0.6952630628908398 0.1672246530566947 0.8073450772917168 N
0.3911781333678631 0.7704327778368856 0.11788278477914528 N
0.6952630628908398 0.6672246530566942 0.6926549227082831 N
0.8043021313771477 0.10562152406090002 0.2883539459775289 N
0.8817582748797643 0.6191010186671593 0.309994303985126 N
