System
1.0
4.393351941589836 -1.21781558e-08 1.765662093244506
1.5677781390176462 5.127102292854538 2.447665277783664
0.2677678502917709 0.3369779333167562 5.682374926118266
V Zn N 
2 4 4 
direct
0.3500366293952437 0.1716829263956476 0.12824481478796035 V
0.6499633706047567 0.8283170736043522 0.8717551852120399 V
0.7087360291362603 0.24112299807917556 0.3414059436236719 Zn
0.2912639708637395 0.7588770019208252 0.6585940563763288 Zn
0.054587695834001304 0.6904520114302553 0.20037059686031666 Zn
0.9454123041659984 0.309547988569745 0.7996294031396836 Zn
0.15535863379017265 0.26588836729318455 0.4233953650924103 N
0.8446413662098265 0.7341116327068153 0.5766046349075898 N
0.5288578561254046 0.1947199494025513 0.7475633383163081 N
0.471142143874596 0.8052800505974488 0.25243666168369144 N
