System
1.0
6.1684572446162 -0.0642174986113501 0.6743091861001618
-1.5827744693965602 5.592997490385271 -3.298888105686237
0.6399616261229013 -0.7357821525046345 8.143800904435915
H N 
16 16 
direct
0.6738191054876602 0.933431973863855 0.3465678571139573 H
0.0020969532155108326 0.6713542608419327 0.4293967132761812 H
0.008026310730330846 0.7945182994786993 0.8629254573612033 H
0.7944935981597123 0.9746409269718473 0.6257274472564658 H
0.6197607608660146 0.2393178081874775 0.0684744085191997 H
0.5905866681061549 0.4862352089138146 0.3326653041424238 H
0.6345104779464097 0.41761600196705584 0.8577207641741971 H
0.7854830598884116 0.4379720877891877 0.5709866938970936 H
0.32618089451233995 0.0665680261361453 0.6534321428860419 H
0.36548952205359186 0.5823839980329438 0.14227923582580249 H
0.4094133318938439 0.5137647910861852 0.6673346958575777 H
0.3802392391339853 0.760682191812523 0.9315255914807997 H
0.20550640184028882 0.025359073028152303 0.3742725527435343 H
-0.008026310730330591 0.20548170052130113 0.1370745426387966 H
-0.002096953215510894 0.3286457391580678 0.5706032867238189 H
0.21451694011158814 0.5620279122108122 0.4290133061029059 H
0.15663927076380652 0.12607837600989893 0.8812503227580695 N
0.8331084418170881 0.3395960029798792 0.6137377048139281 N
0.10115096067895052 0.2837405921468176 0.06605645067605109 N
0.5508993473465327 0.29939318132235215 0.20900609885090238 N
0.3058047286120357 0.1901433173494945 0.3910674157376852 N
0.6932566882921619 0.7797892192759212 0.20265069430159444 N
0.30674331170783814 0.22021078072407893 0.797349305698405 N
0.8988490393210491 0.716259407853183 0.9339435493239491 N
0.44910065265346766 0.7006068186776491 0.7909939011490973 N
0.1668915581829125 0.6604039970201202 0.38626229518607375 N
0.8433607292361938 0.8739216239901021 0.11874967724192981 N
0.5937901404378267 0.8793912864551543 0.7781336303757804 N
0.8061931409751976 0.449112783396904 0.8224725959162604 N
0.40620985956217304 0.12060871354484598 0.2218663696242198 N
0.6941952713879658 0.8098566826505064 0.608932584262315 N
0.19380685902480202 0.5508872166030959 0.17752740408373943 N
