System
1.0
4.890261985493204 -0.0075094195637039 -0.2701674914014817
-0.0075094195637039 4.890261985493204 -0.2701674914014817
-2.1586400279659643 -2.1586400279659643 5.3754385077078535
Ca N F 
4 2 2 
direct
0.14473953128019323 0.39475150646492563 0.2894982139160063 Ca
0.3947515064649257 0.1447395312801932 0.789498213916006 Ca
0.6052484935350744 0.8552604687198068 0.21050178608399372 Ca
0.8552604687198069 0.6052484935350743 0.7105017860839941 Ca
0.3749857466135115 0.6250142533864884 0.7500000000000001 N
0.6250142533864885 0.3749857466135114 0.25 N
0.1249918792371426 0.8750081207628574 0.25 F
0.8750081207628574 0.12499187923714264 0.75 F
