System
1.0
3.7427293548486826 -1.9573383e-09 -1.001220033172315
-0.1415529774754509 5.2948723384427705 -0.5291483185155726
0.0158213281245709 0.002477134362437 7.555230992708096
Sm C N 
2 3 6 
direct
0.8656845363566822 0.9289143235512807 0.731370072713354 Sm
0.13431546364331756 0.0710856764487195 0.268629927286646 Sm
0.3281154193600541 0.405370575864292 0.6562288387201706 C
0.6718845806399459 0.5946294241357085 0.3437711612798298 C
1.4337319100821728e-18 0.5000000000000001 3.3997422895974235e-18 C
0.9882821950578873 0.2678192585547608 0.976562390118206 N
0.6897431715712518 0.8287725642273825 0.3794853431401204 N
0.6572198642700168 0.3655505235139981 0.3144407285425822 N
0.011717804942112803 0.7321807414452393 0.02343760988179401 N
0.31025682842874774 0.1712274357726169 0.6205146568598793 N
0.3427801357299834 0.6344494764860017 0.6855592714574182 N
