System
1.0
2.4587536527566187 -0.0 -0.0
-0.0 2.4587536527566187 -0.0
0.0 0.0 4.23897293718661
Be C N 
1 1 2 
direct
0.5000000181465296 0.5000000181465296 0.5500044232129007 Be
0.0 0.0 0.096575583379711 C
0.0 0.0 0.4097390876785693 N
0.5000000181465296 0.5000000181465296 0.9536807098423388 N
