System
1.0
2.6041477685241583 -1.80873e-11 1.503505078823187
0.8680495894739472 2.455213388257309 1.503505078823187
0.0 0.0 3.007010157646374
Ti N 
1 1 
direct
0.0 0.0 0.0 Ti
0.49999999999999994 0.5 0.49999999999999994 N
