System
1.0
1.2561450176859472 -2.175706398473214 0.0
1.2561430644804885 2.175705941338492 -0.0
-0.0 -0.0 6.580960854238917
B N 
2 2 
direct
0.6666164444244974 0.3332338888520306 0.24999999999999997 B
0.3333835555755034 0.6667661111479691 0.7499999999999999 B
0.6667222221574297 0.3334434443178962 0.7499999999999999 N
0.3332777778425704 0.6665565556821048 0.24999999999999997 N
