System
1.0
4.836462786479769 -0.011630983338444 -1.9395642432138407
-2.7537071739087673 5.618159111079628 0.0536582572336261
-0.037003446342609 -0.0293258423906127 6.611921946306333
Ca W N 
4 2 4 
direct
0.09638558316179875 0.42338479056415007 0.7817211254605675 Ca
0.9036144168382011 0.5766152094358499 0.21827887453943148 Ca
0.2884928280746845 0.21932297930435085 0.33944204545536916 Ca
0.7115071719253161 0.7806770206956486 0.6605579545446303 Ca
0.42684637540482434 0.0681599682473139 0.8091620015830734 W
0.5731536245951763 0.9318400317526859 0.19083799841692667 W
0.5852707456233398 0.3935978913825459 0.7763232310687729 N
0.41472925437666036 0.6064021086174542 0.2236767689312268 N
0.1888583937714479 0.7886546421137278 0.6056568699354653 N
0.8111416062285519 0.2113453578862717 0.39434313006453386 N
