System
1.0
3.8335455181230462 0.1595625301007465 0.5589460290498339
1.6731264273639053 4.408012809927432 0.1318681764509117
0.7285814136453777 -0.0662065184828333 14.829540473165114
Zn H C O 
1 16 10 4 
direct
0.08132390785437324 0.08963432958095759 0.15962725937419503 Zn
0.306723991860404 0.9314164461604876 0.5370257836244738 H
0.7818710257797182 0.31139777402148666 0.924783649480745 H
0.1880088574148239 0.27726495009151186 0.9657120603192683 H
0.05124760426754939 0.3824104552585286 0.765059672872611 H
0.4813115926574042 0.32605308612882905 0.799853164875835 H
0.32803483964016383 0.4196041502297266 0.601627217402633 H
0.7696383627112198 0.35344617138790607 0.631809438818243 H
0.5715982797317194 0.4474265167327783 0.43653551618618897 H
0.029506201960471646 0.3661244059991007 0.4580694410104111 H
0.703606106440624 0.8508638759015983 0.8711350389251219 H
0.13203272757026577 0.7984685673744584 0.9069477887857711 H
0.014987844404382318 0.8996082671344784 0.7040300993475104 H
0.4552666646247055 0.8328017765335252 0.7355454536575003 H
0.5670416347661974 0.9709617783865814 0.3721893949766272 H
0.04857558927160682 0.8387715625737859 0.3797066946632706 H
0.7626234471214648 0.8472016038551852 0.5615974188553463 H
0.6609462323842153 0.5825380610166306 0.0439829955377163 C
0.9153819996332513 0.44862708337418467 0.9521157019969297 C
0.9801964073564942 0.674790508297727 0.8810892702248576 C
0.2073982894474374 0.5063434402824583 0.789207551899751 C
0.28751346939515915 0.7153522725091676 0.713737123219942 C
0.7576207693574346 0.5573314836510922 0.45224593138104063 C
0.5771714679082611 0.739159236249835 0.5440898609889205 C
0.8234958564761202 0.7583076639555932 0.3728279805830519 C
0.9277842988204806 0.6040947740946675 0.2780913677132628 C
0.4973518220753842 0.5381445815307708 0.6221771221710742 C
0.6470667514751854 0.40131411467001715 0.10915922321580028 O
0.8843459254676744 0.7703122851814627 0.2083168074509847 O
0.04400841206774834 0.30935576290616346 0.2731887567714841 O
0.45665362005807353 0.8728300149293292 0.05033521366944171 O
