System
1.0
4.003691 0.0 0.0
0.0 4.003691 0.0
0.0 0.0 4.003691
Ba Cu O 
1 1 3 
direct
0.5 0.5 0.5 Ba
0.0 0.0 0.0 Cu
0.5 0.0 0.0 O
0.0 0.5 0.0 O
0.0 0.0 0.5 O
