System
1.0
4.290662027533186 -3e-16 1.995206312378079
2.1453310120576914 5.052365547711844 0.9976031598640098
0.0149891039513285 -4.0528696e-09 5.578873390800074
Na Ir O 
4 1 4 
direct
0.41005527856684515 0.7870999449336897 0.39278849793496723 Na
0.5899447214331548 0.2129000550663106 0.6072105020650281 Na
0.8028447764996571 0.6072105020668719 0.787099944935343 Na
0.19715522350034276 0.3927884979331238 0.21290005506465734 Na
0.0 0.0 0.0 Ir
0.7423779759168266 0.3428635767987752 0.17237947136916398 O
0.2576220240831735 0.6571364232012248 0.8276205286308365 O
0.9147584472872281 0.8276205286306849 0.3428635767956578 O
0.0852415527127721 0.1723794713693152 0.6571364232043422 O
