System
1.0
5.136321665372998 -0.3889363530696943 -2.326243724549206
-0.9795015451293847 5.821537374305127 -3.136062884943617
-0.885955195681771 -0.3762761209424216 6.702543729422934
Zn Sb O 
2 3 8 
direct
0.6937364401739184 0.6686881975541088 0.33737539511009895 Zn
0.3062635598260813 0.3313128024458886 0.6626246048899013 Zn
0.5 0.9999990000000025 4.3794176722521007e-17 Sb
2.464980369194703e-13 0.7333104452529824 -9.039979634063136e-15 Sb
-2.464941195570406e-13 0.2666895547470175 9.085446744824527e-15 Sb
0.0007976242998193004 0.38181613234439493 0.7636332646889782 O
0.9992013757001835 0.6181828676556079 0.23636673531102192 O
0.9807036323919779 0.8827116192979886 0.7654232385944744 O
0.019296367608022294 0.11728738070201389 0.23457676140552589 O
0.4457630289654372 0.3659325239397807 0.21740879560188403 O
0.445763028966728 0.8514762716623582 0.2174087956031723 O
0.5542369710332721 0.14852272833763738 0.7825902043968301 O
0.5542369710345629 0.6340664760602219 0.7825902043981183 O
