System
1.0
4.835198222721353 0.0 0.0
0.0 4.835198222721353 0.0
0.0 0.0 4.835198222721353
Pd N 
6 2 
direct
0.0 0.5 0.75 Pd
0.5 0.25 0.0 Pd
0.75 0.0 0.5 Pd
0.0 0.5 0.25 Pd
0.5 0.75 0.0 Pd
0.25 0.0 0.5 Pd
0.5 0.5 0.5 N
0.0 0.0 0.0 N
