System
1.0
6.780017450370271 0.1848471704534823 0.1426234984433386
3.550091159432001 5.779243595002857 0.142623513863252
3.5598210202497573 2.055264208597234 5.813163251137918
Zn Bi O 
2 4 8 
direct
0.12499999999999996 0.6250000000000001 0.625 Zn
0.625 0.12500000000000008 0.625 Zn
0.9791254458102625 0.9791254458767822 0.0208745541631467 Bi
0.2708745541897375 0.27087455412321804 0.22912544583685318 Bi
0.6250000000000001 0.625 0.12499999999999997 Bi
0.625 0.6250000000000001 0.625 Bi
0.3796944372380156 0.3796944372184252 0.4214993255964771 O
0.37421136990084947 0.8675491133966783 0.37911975835111134 O
0.3796944372555952 0.3796944372125198 0.8191127999385036 O
0.8675491133786853 0.37421136988406883 0.3791197583735648 O
0.3824508866213142 0.8757886301159314 0.8708802416264347 O
0.8757886300991502 0.38245088660332166 0.8708802416488888 O
0.8703055627444051 0.8703055627874802 0.4308872000614957 O
0.8703055627619839 0.870305562781575 0.8285006744035226 O
