System
1.0
1.4153367926243072 5.744120453080903 -0.0
-1.4153367926243072 5.744120453080903 -0.0
0.0 -0.0 3.813603698821083
Fe H O 
2 2 4 
direct
0.3220193486362176 0.3220193486362176 0.24999999999999997 Fe
0.6779806513637822 0.6779806513637822 0.7499999999999999 Fe
0.0 0.0 0.49999999999999994 H
0.0 0.0 0.0 H
0.705802655297713 0.7058026552977129 0.24999999999999997 O
0.29419734470228703 0.2941973447022871 0.7499999999999999 O
0.9350289758003225 0.9350289758003224 0.24999999999999997 O
0.0649710241996776 0.0649710241996776 0.7499999999999999 O
