System
1.0
4.572881070012807 0.0108113290209323 0.0251743604332403
0.2097241694207516 5.459337695551124 0.0733032892148731
0.1791820488707232 0.6148029438046062 7.469915398786625
Mn O F 
6 8 4 
direct
0.4862634946643603 0.5080868434635754 0.9942911306599406 Mn
0.5006694220258554 0.8258806688790709 0.6618287328522161 Mn
0.5087945849992593 0.18450265469013694 0.3534352086827572 Mn
-0.0005229048953001906 0.3331668303395021 0.6728179467695448 Mn
0.9762100822730964 0.6559102901106592 0.3195206236015717 Mn
0.023964504703501616 0.9909521917665786 -0.0013695237589709016 Mn
0.18584415183180156 0.2813887276784651 0.8979818709259746 O
0.29815513487755074 0.7880423715712812 0.8898455465561591 O
0.30451357896717257 0.4646104877684674 0.22886958238061766 O
0.303484054619062 0.13087946174165221 0.5693842771867629 O
0.6881697457067203 0.5332667001471965 0.7695681704021636 O
0.8106241626278468 0.7108981407368654 0.10271655367909369 O
0.8056273512760691 0.37878685724967914 0.43716379684404955 O
0.7079958443862319 0.8798578264205186 0.43661188076691226 O
0.19875534011331075 0.6386996530918383 0.5508590647632835 F
0.7838867853794302 0.02637942607280221 0.7698739171611997 F
0.7028809413447858 0.20181863128838343 0.1044358371126131 F
0.21468372509924014 0.9668712369833318 0.24216438341411328 F
