System
1.0
4.280924448144995 -0.0264706702104562 -2.3680174278050266
-1.415102130568007 4.687486136238027 2.4455682256217988
-0.090947698660166 -0.0263460813283947 4.890501744127499
V Co O 
2 2 6 
direct
0.6501811745082442 0.9504696831029029 0.3498694512938811 V
0.34982285172304545 0.04953301435476331 0.6501331125822605 V
0.15265507684479354 0.45788577634742306 0.847346386509697 Co
0.8473457655743184 0.5421128778697609 0.15265485394880846 Co
0.4321219119634763 0.2373053889974278 0.2658426785571035 O
0.5678793478518681 0.7626919489005985 0.7341584365552409 O
0.9287996474163042 0.7626106607532064 0.4321171859899598 O
0.0711999309689394 0.2373910277866216 0.5678819396061033 O
0.7341613541850244 0.23740953620549912 0.9289092157692705 O
0.26583193896398133 0.7625890856818142 0.07108773918767233 O
