System
1.0
5.580657909155081 -0.0077823418578111 0.0816482199778246
0.0728938348257994 6.580312614056991 1.6219116709453563
-0.0117241604908825 -0.0075249379880861 6.777627794409681
Ca Ga N 
6 4 8 
direct
0.5448294431758288 0.7494204153172406 0.018493926604111203 Ca
0.044829443175821895 0.0184939266041242 0.7494204153172367 Ca
0.2500000000000042 0.6019920812764772 0.398007918723515 Ca
0.45517055682417124 0.2505795846827594 0.9815060733958888 Ca
0.7499999999999959 0.3980079187235228 0.6019920812764848 Ca
0.9551705568241781 0.9815060733958756 0.2505795846827629 Ca
0.09646198013258711 0.5833090491228757 0.8220963479958642 Ga
0.596461980132584 0.8220963479958674 0.5833090491228704 Ga
0.9035380198674129 0.4166909508771243 0.1779036520041356 Ga
0.4035380198674161 0.1779036520041325 0.4166909508771297 Ga
0.0182650840222466 0.7093590396388707 0.05684213891832571 N
0.4349227902620816 0.5744155014397951 0.739777632986736 N
0.5182650840222331 0.0568421389183331 0.7093590396388747 N
0.934922790262089 0.7397776329867352 0.5744155014397913 N
0.5650772097379184 0.4255844985602051 0.2602223670132637 N
0.9817349159777532 0.2906409603611292 0.9431578610816744 N
0.06507720973791101 0.2602223670132647 0.4255844985602087 N
0.4817349159777669 0.9431578610816669 0.29064096036112524 N
