System
1.0
4.955511616572814 -0.0191318789920013 0.0618249886831876
-0.8544946021030688 4.989562051992035 -0.0141598587488542
-2.3637423719409734 -2.051498894344667 6.827189571787649
Li V Fe O 
5 2 3 10 
direct
0.194392702816101 0.4931171276982249 0.4092126390398031 Li
0.3757996874149377 0.4865990659829262 0.7846244946181686 Li
-3.7538854195611476e-17 3.6783014658095835e-17 0.5 Li
0.6242003125850618 0.5134009340170742 0.21537550538183123 Li
0.8056072971838988 0.5068828723017756 0.5907873609601969 Li
0.5739449848279518 0.9953535628249286 0.6965584679822775 V
0.42605501517204775 0.004646437175071732 0.30344153201772256 V
0.20247664632583276 0.9994758451940267 0.8935582605756627 Fe
0.7975233536741674 0.0005241548059732118 0.10644173942433761 Fe
1.1108593534123957e-17 0.5000000000000001 1.6004847558460946e-19 Fe
0.40493475470587503 0.7657053111097215 0.04437516661012451 O
0.8115917517452838 0.7808054373738087 0.8579769925934807 O
0.5950652452941246 0.23429468889027882 0.9556248333898755 O
0.4141029385272344 0.2360618520128324 0.5496503934193283 O
0.008413339203627416 0.7693805462963781 0.2448273514384001 O
0.20814303792162536 0.7582276274126206 0.6564795871984005 O
0.791856962078375 0.24177237258737966 0.3435204128015995 O
0.9915866607963725 0.2306194537036223 0.7551726485616003 O
0.5858970614727661 0.7639381479871675 0.4503496065806717 O
0.1884082482547167 0.21919456262619205 0.1420230074065192 O
