System
1.0
-1.4861650505995951 -2.5742687511452678 0.0
-1.4861650505995951 2.5742687511452678 -0.0
0.0 0.0 -5.224573125777586
Ru N 
2 2 
direct
0.0 0.0 0.5 Ru
0.0 0.0 0.0 Ru
0.6666705482936338 0.3333294517063662 0.75 N
0.3333294517063662 0.6666705482936338 0.25 N
