System
1.0
2.9033115923148 0.0 1.6762274454209498
0.9677705307715999 2.737268188534957 1.6762274454209498
0.0 0.0 3.3524548908418996
Lu N 
1 1 
direct
0.0 0.0 0.0 Lu
0.5000000000000001 0.5 0.49999999999999983 N
