System
1.0
1.9717936877477111 -1.9717936877477111 0.0
1.9717936877477111 1.9717936877477111 -0.0
-1.9717936877477111 0.0 5.7896834427645585
Cr N 
3 2 
direct
0.0 0.0 0.0 Cr
0.6490929479431564 0.649092947943156 0.2981848958863079 Cr
0.3509070520568437 0.35090705205684364 0.7018151041136921 Cr
0.8311798466169746 0.8311798466169743 0.6623586932339445 N
0.1688201533830254 0.16882015338302536 0.3376413067660554 N
