System
1.0
2.961111215741726 -0.0028592657963224 4.490124581666206
1.3451362547635999 2.6379530442206316 4.4901245816662065
-0.0046725880338444 -0.0028592661572416 5.3786032690073995
Ta Ti C N 
1 1 1 1 
direct
0.7472052834643421 0.7472052834643425 0.7472052834643339 Ta
0.25399280453432493 0.25399280453432505 0.25399280453430867 Ti
0.9979390943258524 0.9979390943258527 0.9979390943258631 C
0.5008618176754824 0.5008618176754825 0.5008618176754975 N
