System
1.0
-1.5506389133069993 -2.685854553084221 0.0
-1.5506389133069993 2.685854553084221 -0.0
0.0 0.0 -5.205467529105977
Ir N 
2 2 
direct
0.0 0.0 0.5 Ir
0.0 0.0 0.0 Ir
0.6666741921424977 0.3333258078575023 0.75 N
0.3333258078575024 0.6666741921424977 0.25 N
