System
1.0
10.387689972342983 0.8332780360481971 0.6103461278333403
-1.5358019501521736 3.2652232194231505 -0.8595328497088917
-3.071604895731122 3.430710683016525 2.512869862112644
K Pt N 
2 2 2 
direct
0.46566633461370394 0.49983611286555285 0.14146585442102635 K
0.9656663346137319 0.5001638871344422 0.641302967286769 K
0.215666773730473 0.5002465644823616 0.3911842689589665 Pt
0.7156667737304877 0.49975343551759455 0.8914318334414706 Pt
0.21566689165580066 0.00025204673475729127 0.8911810145784349 N
0.7156668916558216 0.9997479532652853 0.8914340613133457 N
