System
1.0
3.5015618557612163 0.0 -4.39178340864511
-3.5015618557612163 3.5015628495570446 0.0
-0.0 -0.0 8.78356681729022
Cd Ge N 
2 2 4 
direct
-3.979727351866311e-18 0.5 0.75 Cd
0.0 0.0 0.5 Cd
-3.979727351866311e-18 0.5 0.24999999999999997 Ge
0.0 0.0 0.0 Ge
0.4999999999994837 0.06656387893149 0.12499999999974186 N
0.5000000000005163 0.9334361210685099 0.6250000000002581 N
0.3668722421365036 0.43343612106851 0.3084361210682519 N
0.6331277578634963 0.5665638789314901 0.9415638789317481 N
