System
1.0
4.0157862729391836 5.205651026616356 -0.0227369563301042
-4.0157862729391836 5.205651026616356 -0.0227369563301042
0.0 4.089496257400993 8.005314024650186
Na Fe B P H O 
2 2 2 4 6 20 
direct
0.8608838283077017 0.13911617169229815 0.75 Na
0.1391161716922981 0.8608838283077016 0.25 Na
-1.0501958590659856e-17 0.5 -8.42054607048497e-20 Fe
0.5 -1.2840581548488526e-17 0.5 Fe
0.5358613512304293 0.4641386487695706 0.25 B
0.46413864876957067 0.5358613512304294 0.75 B
0.7132524300327142 0.8409738630898367 0.1818263951851327 P
0.15902613691016323 0.28674756996728595 0.31817360481486706 P
0.8409738630898368 0.7132524300327144 0.6818263951851325 P
0.2867475699672859 0.15902613691016315 0.8181736048148675 P
-4.059615716411744e-17 0.5 0.5 H
0.3045302116337587 0.6871061197036757 0.5648541056377883 H
0.6871061197036757 0.3045302116337587 0.0648541056377883 H
0.6954697883662416 0.3128938802963236 0.4351458943622116 H
0.3128938802963235 0.6954697883662415 0.9351458943622117 H
0.5 1.7253617024969058e-17 -8.42054607048497e-20 H
0.42940014555182376 0.7020819244916392 0.5957027354117109 O
0.2979180755083606 0.5705998544481761 0.904297264588289 O
0.570599854448176 0.29791807550836064 0.4042972645882892 O
0.7020819244916392 0.42940014555182376 0.0957027354117108 O
0.26977107156687724 0.07904039815417378 0.6825689199845956 O
0.9209596018458267 0.7302289284331228 0.8174310800154044 O
0.7302289284331229 0.9209596018458266 0.3174310800154042 O
0.07904039815417369 0.2697710715668773 0.18256891998459568 O
0.0574227857163796 0.28066761494333975 0.886147408002398 O
0.2806676149433397 0.057422785716379626 0.3861474080023978 O
0.9425772142836203 0.7193323850566602 0.11385259199760218 O
0.6373892027191733 0.038464315285198024 0.0442041556632049 O
0.9615356847148024 0.3626107972808266 0.4557958443367952 O
0.03846431528519799 0.6373892027191732 0.5442041556632049 O
0.4650043736734811 0.3159707553680768 0.7442149611188148 O
0.6840292446319229 0.534995626326519 0.7557850388811851 O
0.5349956263265189 0.6840292446319228 0.2557850388811846 O
0.3159707553680768 0.46500437367348096 0.2442149611188151 O
0.7193323850566604 0.9425772142836204 0.613852591997602 O
0.3626107972808265 0.9615356847148022 0.9557958443367951 O
