System
1.0
-3.853845205812583 -3.853845205812583 0.0
-3.853845205812583 -0.0 -3.853845205812583
0.0 -3.853845205812583 -3.853845205812583
Co N Cl 
1 6 2 
direct
0.0 0.0 0.0 Co
0.7639316527270079 0.23606834727299209 0.23606834727299214 N
0.7639316527270079 0.23606834727299206 0.763931652727008 N
0.7639316527270079 0.7639316527270079 0.2360683472729921 N
0.23606834727299206 0.7639316527270079 0.763931652727008 N
0.23606834727299206 0.7639316527270079 0.23606834727299217 N
0.23606834727299206 0.2360683472729921 0.7639316527270079 N
0.25 0.25 0.25 Cl
0.7500000000000001 0.7500000000000001 0.75 Cl
