System
1.0
3.4956196010566316 0.0056760776012214 5.907934878232675
1.6212258544761144 3.096936301859358 5.907934876566269
0.0093605193962386 0.0056760733195657 6.864616254246903
Li N Cl 
4 1 1 
direct
0.9032320539124578 0.90323205391246 0.9032320539097962 Li
0.096767946087542 0.09676794608754051 0.09676794609020394 Li
0.6552913926449601 0.6552913926449605 0.6552913926443249 Li
0.3447086073550396 0.3447086073550393 0.3447086073556752 Li
0.0 0.0 0.0 N
0.49999999999999994 0.5000000000000001 0.5000000000000002 Cl
