System
1.0
4.298575369767258 1.702691e-10 4.6452003163403734
4.298574996134134 4.298575389960418 4.671071477e-07
-6.515477e-10 -5.327457e-10 9.29040011871588
Ba Fe N 
2 4 4 
direct
0.0 0.0 0.25 Ba
0.0 0.0 0.75 Ba
0.7309940163129321 0.5000000000000004 0.6345034968435393 Fe
0.26900598368706813 0.4999999999999994 0.36549650315646065 Fe
0.26900598368706813 0.2309940163129325 0.8654965031564653 Fe
0.730994016312932 0.7690059836870679 0.1345034968435345 Fe
0.6805498595104532 0.5000000000000007 0.15972507024478516 N
0.31945014048954684 0.4999999999999993 0.8402749297552148 N
0.31945014048954706 0.1805498595104538 0.34027492975524243 N
0.6805498595104528 0.8194501404895462 0.6597250702447576 N
