System
1.0
5.6006641437569 0.0217247604674185 -0.902687351183535
-1.0165584148357494 6.781149480768863 -0.6565225207422536
0.0695297497240682 0.0036457173032782 7.7137945289835015
V S N Cl 
2 4 6 4 
direct
0.7639025040884045 0.8483471954255848 0.021007982709199506 V
0.236097495911596 0.1516528045744152 0.978992017290801 V
0.742654433179995 0.6371874130170112 0.3575521085202564 S
0.8127768247975984 0.11916991457583372 0.6648706760058256 S
0.25734556682000537 0.3628125869829887 0.6424478914797427 S
0.1872231752024017 0.8808300854241666 0.3351293239941739 S
0.986580935693626 0.2570890973548662 0.5715911476848685 N
0.06837035794016251 0.9256230010084194 0.1457808375707814 N
0.013419064306373386 0.7429109026451333 0.42840885231513154 N
0.6583707590482512 0.6967089565475484 0.1678319197151361 N
0.3416292409517487 0.3032910434524522 0.8321680802848643 N
0.9316296420598376 0.0743769989915804 0.8542191624292185 N
0.3777265083697003 0.8687935800371773 0.8276426072210482 Cl
0.1836124431789508 0.3837897785034621 0.19060405637150143 Cl
0.6222734916302999 0.1312064199628227 0.1723573927789523 Cl
0.8163875568210484 0.6162102214965378 0.8093959436284988 Cl
