System
1.0
2.8264359849 1.6318435768 1.5295550732
-2.8264359849 1.6318435768 1.5295550732
0.0 -3.2636871535 1.5295550732
Zn C N 
1 1 1 
direct
-0.0010002330047892002 -0.0010002330047892002 -0.0010002331109651003 Zn
0.3657844252393587 0.3657844252393587 0.36578326488744406 C
0.6352136080449751 0.6352136080449751 0.635211704493319 N
