System
1.0
1.4175200367959178 -2.455216303589537 -0.0
1.4175200367959178 2.455216303589537 0.0
0.0 -0.0 17.652142408853848
W N 
6 3 
direct
0.0 0.0 0.07561505429435958 W
0.0 0.0 0.9243849457056406 W
0.6666669999999968 0.3333330000000032 0.2622035082211736 W
0.3333330000000032 0.6666669999999968 0.7377964917788266 W
0.6666669999999968 0.3333330000000032 0.4169662189582588 W
0.3333330000000032 0.6666669999999968 0.583033781041741 W
0.0 0.0 0.5 N
0.6666669999999968 0.3333330000000032 0.1504352020165892 N
0.3333330000000032 0.6666669999999968 0.8495647979834103 N
