System
1.0
6.663720676355554 0.0 -0.0
0.0 6.663720676355554 -0.0
-0.0 -0.0 4.885561200212858
Li W N 
12 2 8 
direct
0.21287133233933236 0.7871286676606674 0.0 Li
0.5 0.0 0.0768919348279353 Li
0.0 0.5 0.9231080651720646 Li
0.0 0.5 0.42310806517206456 Li
0.7128713323393325 0.2871286676606675 0.5 Li
0.7871286676606674 0.7871286676606674 0.0 Li
0.5 0.0 0.5768919348279353 Li
0.2871286676606675 0.7128713323393325 0.5 Li
0.7871286676606674 0.21287133233933236 0.0 Li
0.7128713323393325 0.7128713323393325 0.5 Li
0.2871286676606675 0.2871286676606675 0.5 Li
0.21287133233933236 0.21287133233933236 0.0 Li
0.5 0.5 0.0 W
0.0 0.0 0.5 W
0.5 0.257122728149558 0.7983316725491796 N
0.0 0.7571227281495578 0.7016683274508203 N
0.0 0.2428772718504421 0.7016683274508203 N
0.7428772718504421 0.5 0.2016683274508202 N
0.257122728149558 0.5 0.2016683274508202 N
0.7571227281495578 0.0 0.2983316725491797 N
0.5 0.7428772718504421 0.7983316725491796 N
0.2428772718504421 0.0 0.2983316725491797 N
