System
1.0
4.4378970432125495 -0.0 -0.0
-0.0 4.4378970432125495 -0.0
0.0 0.0 4.4378970432125495
Al Ga N 
3 1 4 
direct
0.5 0.5 0.0 Al
0.5 0.0 0.5 Al
0.0 0.5 0.5 Al
0.0 0.0 0.0 Ga
0.7439495711598934 0.7439495711598934 0.2560504288401067 N
0.7439495711598934 0.2560504288401067 0.7439495711598934 N
0.2560504288401067 0.7439495711598934 0.7439495711598934 N
0.2560504288401067 0.2560504288401067 0.2560504288401067 N
