System
1.0
4.3893885946099225 1.03e-13 2.3358091622365476
1.5330580662845186 4.44995803225695 2.4112332625634476
0.0020135889168056 -9.34596259351e-05 5.2883301056822765
Si Sn N 
2 2 4 
direct
0.6201438790635647 0.8794743655892768 0.8794753655892745 Si
0.879093610242116 0.120525634410723 0.12052463441072554 Si
0.1786097366203939 0.3697190771629881 0.3697190771629881 Sn
0.4180468909463653 0.630280922837012 0.6302809228370119 Sn
0.9350365755477645 0.9096731197251596 0.9096731197251596 N
0.2543828149980771 0.0903268802748402 0.09032688027484023 N
0.6273442462908604 0.5 -9.166607062874215e-17 N
0.6273432462908556 1.6478899890517977e-21 0.5000000000000001 N
