System
1.0
3.1528319955791746 4.32961358e-08 1.1820718241600396
0.8838624840997202 5.050445229389315 2.4382208543255888
-0.2845553025383439 1.139375843092554 5.55463541210042
Li Fe N 
4 1 2 
direct
0.6588247677733673 0.6014752267155541 0.08087623744207932 Li
0.3411752322266325 0.3985247732844466 -0.0808762374420793 Li
0.3411752317588934 -0.08087623825570399 0.3985247749284159 Li
0.6588247682411066 0.08087623825570393 0.601475225071584 Li
0.0 0.0 0.0 Fe
0.17925432144899023 0.8207456788385811 0.8207456781458434 N
0.8207456785510101 0.17925432116141887 0.17925432185415668 N
