System
1.0
5.205299144000227 0.0384518445349446 -0.4661405123213881
-2.63213852901413 6.402840523304884 -2.4901158101959373
-0.0401122790800922 0.035340350359087 9.07097436094001
H C S N 
10 12 4 2 
direct
0.8917088966797384 0.8634935846955035 0.9132959244345114 H
0.3917077240454275 0.36349311863617356 0.4132958625223727 H
0.9553266564920939 0.5064657050548601 0.297092919190673 H
0.4553280753639219 0.006466480431483902 0.7970932400562089 H
0.7755030898258728 0.6638346907945775 0.10830123674860748 H
0.27550390650290685 0.1638351190302373 0.6083014868247478 H
0.5638068120909878 0.6550441727958637 0.8209753463632862 H
0.06380602039291429 0.15504343353337618 0.3209751085790822 H
0.37824049323816633 0.18597943454227914 0.0872262899233985 H
0.8782411037409341 0.685979728017726 0.5872263046994601 H
0.41893841757693745 0.0641679895657072 0.29386304517414114 C
0.9189388622215172 0.5641681564891018 0.7938630991426274 C
0.2771914572297786 0.2199107242645508 0.3061664998226263 C
0.7771922785365238 0.7199111404320623 0.806166626095961 C
0.6395481255081471 0.8603205095212401 0.6050549623908769 C
0.13954753928961838 0.3603202219287563 0.10505487625241632 C
0.3919577856468062 0.0628999486134585 0.574770383211053 C
0.9619656216380353 0.5080525678495973 0.9239010830416216 C
0.8919571989574714 0.5628996556999795 0.07477020649758193 C
0.4864240448844927 0.9799419580028937 0.6758333962477698 C
0.9864231150786695 0.4799414963545954 0.17583320510857603 C
0.461965616976608 0.008052610294154402 0.4239010931078812 C
0.029829645864664765 0.46549058109698754 0.6263587288049216 S
0.5298289869692026 0.9654902167370609 0.12635860304944843 S
0.15287376656628598 0.3473684208359927 0.9101782333780721 S
0.6528736445422262 0.8473683766037032 0.41017816865813983 S
0.2738951813135564 0.26206931190136196 0.1610414809075395 N
0.7738959328265209 0.7620696462766915 0.661041589766397 N
