System
1.0
4.153797358062165 -0.2294472895685221 0.1559913573957643
-0.482464553502165 -3.1880591517518 -0.1444432985243583
0.4550007912415777 -0.8207777448482846 -4.04401504260907
Al N 
1 3 
direct
0.17767066448890936 0.5018973768380443 0.6052553822672224 Al
0.15384894181185052 -0.04911169838367727 0.7722701664677523 N
0.5729803018898914 0.6131982388359376 0.279605386438683 N
-0.15138148979728083 0.6212359641736425 0.2723005103353168 N
