System
1.0
4.109393173350379 0.0 -0.0
0.0 4.109393173350379 -0.0
0.0 0.0 4.109393173350379
Ir N 
3 3 
direct
0.5 0.5 0.0 Ir
0.5 0.0 0.5 Ir
0.0 0.5 0.5 Ir
0.0 0.0 0.5 N
0.0 0.5 0.0 N
0.5 0.0 0.0 N
