System
1.0
5.1550222322962655 0.0097719070479385 3e-16
-4.2443166572167605 2.9257692695953414 3e-16
-0.0 -0.0 9.784210961855687
Ca Mn O 
2 4 8 
direct
0.6087734528745088 0.39122654712549143 0.75 Ca
0.3912265471254915 0.6087734528745088 0.25 Ca
0.13445436192349652 0.8655456380765036 0.0681123357488684 Mn
0.8655456380765036 0.1344543619234965 0.931887664251132 Mn
0.13445436192349652 0.8655456380765036 0.4318876642511317 Mn
0.8655456380765036 0.1344543619234965 0.568112335748868 Mn
0.7719163613567668 0.2280836386432329 0.39361413076484864 O
0.22808363864323294 0.771916361356767 0.6063858692351516 O
0.22808363864323294 0.771916361356767 0.8936141307648485 O
0.7719163613567668 0.2280836386432329 0.1063858692351515 O
0.06363888012906599 0.9363611198709342 0.25 O
0.9363611198709342 0.0636388801290659 0.75 O
0.5 0.5 0.0 O
0.5 0.5 0.5 O
