System
1.0
5.537027451309619 -0.0023746635571244 1.2461087966469548
1.1704584968428722 5.411904697557622 1.246108801299914
-0.0015294231070605 -0.0012341325637449 6.503066660747855
Na Y P O F 
2 2 2 8 2 
direct
0.7048787721606814 0.2951212278392102 0.4999999999999979 Na
0.2951212278393185 0.70487877216079 0.5000000000000018 Na
0.28270398650167256 0.2827039865017684 0.11783548943516188 Y
0.7172960134983271 0.7172960134982318 0.8821645105648386 Y
0.15329191695912736 0.15329191695922562 0.723558059213164 P
0.8467080830408726 0.846708083040774 0.27644194078683654 P
0.018634926883279 0.0186349268829728 0.2743046486533741 O
0.9813650731167208 0.9813650731170274 0.725695351346626 O
0.258614175887866 0.2586141758876337 0.4917616932426652 O
0.7413858241121342 0.7413858241123663 0.5082383067573343 O
0.36903646655175587 0.016861350337030803 0.8462351333036412 O
0.6309635334482445 0.9831386496629688 0.15376486669635847 O
0.9831386496631955 0.6309635334481988 0.15376486669630723 O
0.016861350336804515 0.3690364665518015 0.8462351333036925 O
0.4803006777690134 0.4803006777692225 0.8088921803960202 F
0.5196993222309865 0.5196993222307776 0.19110781960398032 F
