System
1.0
8.530676314195226 -2.6879298e-09 4.925188391537943
2.843558768864203 8.042798257866432 4.925188391537946
-7.6026133e-09 -5.3758591e-09 9.85037580949747
Na Fe C S O 
12 4 8 2 32 
direct
0.9089448447372049 0.908944844737192 0.3410551552628093 Na
0.9089448447372018 0.34105515526281177 0.9089448447371833 Na
0.9089448447371945 0.3410551552628042 0.3410551552628101 Na
0.3410551552627953 0.3410551552628078 0.9089448447371907 Na
0.3410551552627977 0.9089448447371885 0.34105515526281643 Na
0.34105515526280517 0.9089448447371958 0.9089448447371896 Na
0.6589448447371945 0.09105515526280432 0.09105515526281018 Na
0.09105515526279785 0.6589448447371885 0.09105515526281649 Na
0.0910551552627953 0.091055155262808 0.6589448447371907 Na
0.6589448447372048 0.658944844737192 0.09105515526280891 Na
0.6589448447372019 0.09105515526281162 0.6589448447371834 Na
0.09105515526280536 0.6589448447371958 0.6589448447371895 Na
0.49999999999999994 0.5 0.49999999999999994 Fe
0.49999999999999994 0.5 -3.360141884585865e-17 Fe
0.5 0.0 0.49999999999999994 Fe
-1.792426899422416e-17 0.5 0.4999999999999999 Fe
0.2805449422885003 0.2805449422884819 0.658364173134535 C
0.280544942288522 0.2805449422885034 0.2805449422884785 C
0.7194550577114999 0.7194550577115183 0.341635826865465 C
0.7194550577115073 0.34163582686548255 0.7194550577115182 C
0.34163582686551947 0.7194550577115074 0.7194550577114999 C
0.7194550577114783 0.7194550577114968 0.7194550577115219 C
0.2805449422884925 0.6583641731345174 0.28054494228848187 C
0.6583641731344806 0.2805449422884926 0.28054494228850024 C
0.8750000000000001 0.875 0.875 S
0.12499999999999999 0.125 0.12499999999999999 S
0.8617007783394559 0.339788410698291 0.6013331471185229 O
0.13829922166054417 0.6602115893017093 0.3986668528814771 O
0.6602115893016784 0.1382992216605338 0.30282233615627774 O
0.3028223361562349 0.398666852881528 0.6602115893016686 O
0.33978841069825927 0.6971776638437146 0.6013331471185649 O
0.8617007783395022 0.601333147118522 0.6971776638436811 O
0.6971776638438375 0.8617007783394282 0.6013331471185143 O
0.3397884106982359 0.6013331471184966 0.861700778339421 O
0.13829922166046277 0.3028223361562477 0.6602115893016779 O
0.6013331471184572 0.6971776638437708 0.8617007783394243 O
0.6971776638438322 0.3397884106983539 0.8617007783393679 O
0.6602115893017406 0.3028223361562851 0.39866685288143483 O
0.6602115893017638 0.39866685288150366 0.1382992216605785 O
0.8617007783395371 0.6971776638437522 0.33978841069832166 O
0.3104984139558887 0.0631671953480847 0.0631671953480536 O
0.6013331471184064 0.8617007783394088 0.3397884106983852 O
0.3397884106983216 0.8617007783394661 0.6971776638437216 O
0.697177663843765 0.601333147118472 0.3397884106983312 O
0.6013331471183895 0.3397884106983228 0.6971776638437429 O
0.9368328046520339 0.9368328046519587 0.936832804651857 O
0.6895015860441113 0.9368328046519152 0.9368328046519457 O
0.3986668528815935 0.1382992216605907 0.6602115893016146 O
0.936832804651946 0.9368328046518712 0.689501586044332 O
0.3986668528816106 0.6602115893016768 0.30282233615625725 O
0.9368328046519152 0.6895015860442611 0.9368328046518709 O
0.06316719534808468 0.3104984139557386 0.06316719534812862 O
0.06316719534805361 0.0631671953481286 0.3104984139556681 O
0.3986668528815426 0.30282233615622894 0.1382992216605757 O
0.13829922166049793 0.3986668528814777 0.3028223361563186 O
0.30282233615616255 0.1382992216605718 0.3986668528814862 O
0.3028223361561678 0.6602115893016459 0.13829922166063205 O
0.0631671953479659 0.0631671953480409 0.06316719534814258 O
