System
1.0
6.348929679547915 -8.7711e-12 3.6655562574092473
2.116309896499493 5.985828300126931 3.6655562574092473
0.0 -0.0 7.331112514818495
Bi Ru O 
4 4 14 
direct
0.49999999999999994 0.5 0.5000000000000001 Bi
-8.94564709341628e-18 0.5 0.5 Bi
0.5 0.0 0.5 Bi
0.49999999999999994 0.5 4.250953848000026e-17 Bi
0.0 0.0 0.0 Ru
0.0 0.0 0.5 Ru
0.5 0.0 2.125476924000013e-17 Ru
-8.94564709341628e-18 0.5 -3.42563819912577e-17 Ru
0.07747728613613719 0.6725227138638661 0.0774772861361361 O
0.6725227138638628 0.077477286136134 0.6725227138638639 O
0.6725227138638628 0.077477286136134 0.07747728613613937 O
0.625 0.625 0.625 O
0.9225227138638628 0.3274772861361341 0.3274772861361393 O
0.32747728613613714 0.9225227138638662 0.3274772861361361 O
0.32747728613614396 0.32747728613613747 0.9225227138638593 O
0.9225227138638562 0.9225227138638626 0.3274772861361406 O
0.9225227138638628 0.3274772861361341 0.9225227138638638 O
0.07747728613613719 0.6725227138638662 0.6725227138638608 O
0.32747728613613714 0.9225227138638662 0.9225227138638608 O
0.375 0.37500000000000006 0.37500000000000006 O
0.6725227138638561 0.6725227138638626 0.07747728613614055 O
0.07747728613614381 0.07747728613613741 0.6725227138638594 O
