System
1.0
5.46676578916223 -0.0095002942601322 0.0039799258470131
-0.3705154346703595 7.752983394185815 0.0169182537359647
-0.1903867142679365 -1.1344959297228472 7.693481247528285
Hf Bi O 
4 4 16 
direct
0.7820226840713307 0.32441854060765135 0.6375842204922063 Hf
0.7429643093789055 0.8221581114726497 0.6724134174418173 Hf
0.2570356906210948 0.17784188852735017 0.3275865825581828 Hf
0.2179773159286688 0.675581459392348 0.3624157795077941 Hf
0.27986036155862537 0.14638240989177637 0.8188538263748854 Bi
0.2426280570649096 0.6315600036002713 0.8643940783933949 Bi
0.7573719429350906 0.3684399963997287 0.13560592160660523 Bi
0.7201396384413742 0.8536175901082232 0.1811461736251149 Bi
0.41036133013759785 0.17439057487434298 0.0812012276010562 O
0.38934146288716454 0.9288403404538559 0.3194866213892693 O
0.9240994231376527 0.09294115096113269 0.188508035439643 O
0.10488770358036871 0.42098066955399877 0.3278400184474186 O
0.9046876761920608 0.8164494082239383 0.43283436547880505 O
0.414664205577889 0.6968119931440185 0.588023193477268 O
0.5853357944221109 0.3031880068559815 0.4119768065227324 O
0.6106585371128358 0.0711596595461442 0.6805133786107306 O
0.8951122964196313 0.5790193304460011 0.6721599815525819 O
0.0759005768623471 0.9070588490388669 0.8114919645603577 O
0.4934947480334477 0.6132509928704415 0.1879815652027974 O
0.589638669862403 0.8256094251256572 0.9187987723989435 O
0.5065052519665524 0.38674900712955873 0.8120184347972027 O
0.9967544365350036 0.32285476543327757 0.8834911348495408 O
0.09531232380793941 0.18355059177606156 0.5671656345211956 O
0.003245563464996789 0.6771452345667223 0.1165088651504592 O
