System
1.0
1.8336506720099974 -3.175975698643492 0.0
1.8336506720099974 3.175975698643492 -0.0
0.0 0.0 4.5242429090243
Zr Ta N O 
1 1 1 1 
direct
0.0 0.0 0.0 Zr
0.3333330000000034 0.6666669999999966 0.5 Ta
0.6666669999999968 0.3333330000000031 0.5 N
0.3333330000000034 0.6666669999999966 0.0 O
