System
1.0
4.773511104609307 0.0 0.0
-2.3867555523046535 4.468739154388321 0.0
0.0 0.0 13.403598217172627
Sn P Cl O 
4 2 2 8 
direct
0.2244911943789092 0.3931698725314047 0.109838294564632 Sn
0.8313203218475071 0.6068301274685952 0.6098382945646325 Sn
0.8313203218475071 0.6068301274685952 0.8901617054353677 Sn
0.2244911943789092 0.3931698725314047 0.3901617054353678 Sn
0.9196506049245563 0.7301651404656412 0.25 P
0.18948546445890743 0.2698348595343585 0.7500000000000001 P
0.4532488294996158 0.0 0.0 Cl
0.4532488294996158 0.0 0.5 Cl
0.7268882943737578 0.600651656353874 0.15382041887838294 O
0.5498588374047225 0.3500077010079262 0.7500000000000001 O
0.0730467248716051 0.079308049167545 0.25 O
0.12623663801988314 0.39934834364612504 0.846179581121617 O
0.7268882943737578 0.600651656353874 0.3461795811216169 O
0.12623663801988314 0.39934834364612504 0.6538204188783832 O
0.19985013639679874 0.6499922989920739 0.25 O
0.9937386757040609 0.9206919508324547 0.7500000000000001 O
