System
1.0
3.94873173838125 -0.0 -0.0
0.0 3.94873173838125 -0.0
0.0 -0.0 9.643401215876946
Tb Bi I O 
1 2 1 4 
direct
0.0 0.0 0.0 Tb
0.5 0.5 0.2584363617983736 Bi
0.5 0.5 0.7415636382016264 Bi
0.0 0.0 0.5 I
0.0 0.5 0.856896696193993 O
0.5 0.0 0.856896696193993 O
0.0 0.5 0.1431033038060071 O
0.5 0.0 0.1431033038060071 O
