System
1.0
3.5898725951372654 0.0895409762959518 -0.0912097856096074
1.4655025290285746 4.300707307856327 0.0817308596407684
0.3138554588098834 0.0989924854970496 9.794847715493006
Zn H C O 
1 8 6 4 
direct
0.0073792433654246824 0.7769392255965247 0.2024395130157675 Zn
0.8149455118362557 0.5472261776253671 0.5479700487654948 H
0.3183473208828545 0.6296831242345757 0.5096696283817498 H
0.8744002013174456 0.0141982727560105 0.6485253542497396 H
0.644203765829248 0.4768646620823619 0.8024846332187466 H
0.7086015123535511 0.9250354492498654 0.8955832272415433 H
0.21248582004748132 0.0065437448346370945 0.8568612620284387 H
0.3823368140778867 0.07764395040732358 0.6027444439341584 H
0.15213874420155094 0.5402355245005293 0.7566612729518775 H
0.3100290361240932 0.25085032245714045 0.0236308068203491 C
0.42577103147117834 0.12042892353706597 0.8832965992356604 C
0.444456895833346 0.35576761422937353 0.7705154099877752 C
0.7148307695733356 0.30318347608253027 0.3814229702552113 C
0.6008741075439358 0.43389138645446873 0.521809529527594 C
0.5821358618260527 0.1987378825502834 0.6346728618155866 C
0.1370994072291695 0.5464256953141283 0.0308887624008588 O
0.6376568749812798 0.49565353899361747 0.2777468775769104 O
0.8865632752525224 0.007482267561351597 0.37414319626748166 O
0.38607080625338486 0.05822976153282689 0.1272516023250544 O
