System
1.0
5.377973008558352 3.8392101223232435 0.0
-5.377973008558352 3.8392101223232435 0.0
0.0 0.0 7.611757337373338
Sm Ta O 
6 2 14 
direct
0.0011584975148019676 0.4638053016060838 0.491616110393253 Sm
0.536194698393916 0.9988415024851979 0.508383889606747 Sm
0.4690547685004272 0.4690547685004272 0.75 Sm
0.5309452314995726 0.5309452314995726 0.25 Sm
0.9988415024851978 0.5361946983939161 0.991616110393253 Sm
0.4638053016060838 0.0011584975148019676 0.0083838896067469 Sm
0.0015019326223612 0.0015019326223612 0.25 Ta
0.9984980673776387 0.9984980673776388 0.75 Ta
0.30500175301692206 0.0516574992535127 0.2910983304290276 O
0.9483425007464872 0.6949982469830785 0.7089016695709726 O
0.6295134257712628 0.37048657422873743 0.0 O
0.9199271125406042 0.676722742184577 0.2736989670480123 O
0.3232772578154228 0.0800728874593957 0.7263010329519879 O
0.0800728874593957 0.3232772578154228 0.7736989670480121 O
0.051657499253512665 0.305001753016922 0.2089016695709724 O
0.3704865742287374 0.6295134257712628 0.5 O
0.6949982469830785 0.9483425007464872 0.7910983304290274 O
0.6372640739185369 0.36273592608146327 0.5 O
0.3627359260814632 0.6372640739185369 0.0 O
0.06266990368706828 0.937330096312932 0.0 O
0.676722742184577 0.9199271125406043 0.2263010329519877 O
0.937330096312932 0.06266990368706828 0.5 O
