System
1.0
4.164675927038045 -0.0 -0.0
0.0 4.164675927038045 -0.0
-0.0 0.0 4.164675927038045
Mg B O 
3 1 4 
direct
0.0 0.5 0.5 Mg
0.5 0.0 0.5 Mg
0.5 0.5 0.0 Mg
0.0 0.0 0.0 B
0.5 0.0 0.0 O
0.5 0.5 0.5 O
0.0 0.0 0.5 O
0.0 0.5 0.0 O
