System
1.0
3.15165513438315 -5.458826444311588 -0.0
3.15165513438315 5.458826444311588 0.0
-0.0 0.0 12.45667728915599
Sr Ta O 
2 8 22 
direct
0.6666669999999968 0.3333330000000032 0.25 Sr
0.3333330000000032 0.6666669999999968 0.75 Sr
0.3573572367107754 1.0506590619797652e-14 0.0 Ta
0.6426427632892143 0.6426427632892143 0.0 Ta
0.35735723671078606 0.35735723671078606 0.5 Ta
-1.049720772877112e-14 0.6426427632892249 0.5 Ta
1.0506590619797652e-14 0.3573572367107754 0.0 Ta
0.6666669999999968 0.3333330000000032 0.75 Ta
0.3333330000000032 0.6666669999999968 0.25 Ta
0.6426427632892249 -1.049720772877112e-14 0.5 Ta
0.629744298078177 0.5675288751953168 0.8454979155430989 O
0.37025570192185925 0.9377845771171475 0.1545020844569011 O
0.629744298078141 0.06221542288285317 0.6545020844569011 O
0.4324711248046765 0.062215422882823786 0.8454979155430989 O
0.9377845771171768 0.5675288751953235 0.6545020844569011 O
0.4324711248046828 0.3702557019218234 0.6545020844569011 O
0.3702557019218234 0.4324711248046828 0.3454979155430988 O
0.062215422882853116 0.629744298078141 0.3454979155430988 O
0.9377845771171476 0.37025570192185936 0.8454979155430989 O
0.5675288751953236 0.9377845771171767 0.3454979155430988 O
0.24593380784954672 -1.0894125692405567e-14 0.5 O
0.754066192150453 1.1000413464268058e-14 0.0 O
0.2459338078495358 0.2459338078495358 0.0 O
0.7540661921504641 0.7540661921504641 0.5 O
0.5675288751953168 0.629744298078177 0.1545020844569011 O
1.1000413464268058e-14 0.754066192150453 0.0 O
0.3333330000000032 0.6666669999999968 0.9656242192914813 O
0.6666669999999968 0.3333330000000032 0.4656242192914813 O
0.6666669999999968 0.3333330000000032 0.0343757807085187 O
0.3333330000000032 0.6666669999999968 0.5343757807085187 O
-1.0894125692405567e-14 0.24593380784954672 0.5 O
0.06221542288282383 0.4324711248046764 0.1545020844569011 O
