System
1.0
5.30662021500224 0.0131096852632405 0.021970954297756
-2.4130515866334017 4.800242873767153 -0.0059863040110013
-2.4728025524752715 -1.3828198304057442 5.095005904976626
Li Fe O F 
8 1 5 1 
direct
0.24763328894656916 0.47053059912468864 0.3564524105045331 Li
0.12411646414955144 0.23067363058041387 0.6600202769390723 Li
0.40183118442560556 0.8928215935141516 0.6348272546130868 Li
0.7318781606783518 0.3539299940246163 0.0216880054907281 Li
0.2983573276947809 0.6796821306777933 0.9726158870000563 Li
0.5766484447403032 0.096421118689293 0.34563386294023213 Li
0.9029020191809194 0.7960686004047289 0.3672665085265471 Li
0.7575336879170933 0.5170591184347776 0.6464732811396534 Li
0.925257949175101 0.9452640024464993 0.9644199553735756 Fe
0.506682108336456 0.5976377813726219 0.7625475198136269 O
0.8720632560199603 0.10523433180705588 0.2446727521960768 O
0.1646902115787625 0.7641007316910231 0.2356874384079034 O
0.8226095236136508 0.22112388877295758 0.7566813069779128 O
0.12509962607301287 0.8958583554122986 0.7546890102856405 O
0.5426947474698666 0.4335941230470803 0.2763255297913513 F
