System
1.0
1.2561627670404694 -2.1757382614982554 0.0
1.2561627670404694 2.1757382614982554 0.0
0.0 0.0 6.577551027895513
B N 
2 2 
direct
0.3333330000000032 0.6666669999999968 0.24999999999999997 B
0.6666669999999968 0.3333330000000032 0.75 B
0.3333330000000032 0.6666669999999968 0.75 N
0.6666669999999968 0.3333330000000032 0.24999999999999997 N
