System
1.0
-3.1536818526434693 -3.1536818526434693 3.6983757081267634
-3.1536818526434693 3.1536818526434693 -3.6983757081267634
3.1536818526434693 -3.1536818526434693 -3.6983757081267634
Rb N 
2 6 
direct
0.0 0.7499999999999999 0.7499999999999999 Rb
0.0 0.24999999999999997 0.24999999999999997 Rb
0.5 -5.551115123125783e-17 0.49999999999999994 N
0.5 0.5 0.0 N
0.23374966832032915 0.8668748341601645 0.36687483416016453 N
0.7662503316796708 0.13312516583983536 0.6331251658398352 N
0.5000000000000001 0.6331251658398354 0.8668748341601645 N
0.5 0.3668748341601646 0.13312516583983539 N
