System
1.0
6.038005015472265 0.0549829307522675 2.756723042510011
4.097378912752634 4.43531438963151 2.756723042510012
0.0374189233689626 0.0165777727341332 6.130258976931415
Nd N 
3 6 
direct
0.36454901979420984 0.3645490197942097 0.933797129191675 Nd
0.1760725223850628 0.17607252238506277 0.5437490446664746 Nd
0.584536856964854 0.584536856964854 0.1799186344288191 Nd
0.15759737403258922 0.15759737403258917 0.183838553117774 N
0.6117096832901819 0.6117096832901818 0.7564391473829614 N
0.820627922451417 0.8206279224514167 0.8443110471681201 N
0.379523233612383 0.37952323361238294 0.28874418672413676 N
0.6022554573087727 0.6022554573087725 0.5616339286671538 N
0.9285089301605267 0.9285089301605265 0.7517183286528863 N
