System
1.0
4.320808036752064 4.320806122532047 -6.5e-15
-7.135977e-09 4.320806129668022 4.320808029616081
4.320808029616085 7.1359754e-09 4.320809000998026
Na In H N F 
1 1 8 2 6 
direct
0.5 0.5 0.5 Na
0.0 0.0 0.0 In
0.3190487443676274 0.3190487443693069 0.3190487443861016 H
0.3190487443726657 0.3190487443676275 0.042853766873605134 H
0.04285276687696658 0.3190487443827427 0.3190487443726658 H
0.3190487443827427 0.04285376688032301 0.3190487443676275 H
0.6809512556172577 0.9571462331196767 0.6809512556323725 H
0.6809512556273342 0.6809512556323724 0.9571462331263952 H
0.957146233123036 0.6809512556172574 0.6809512556273342 H
0.6809512556323725 0.6809512556306931 0.6809512556138981 H
0.75 0.75 0.75 N
0.25 0.25 0.25 N
0.7561877499164796 0.7561877499171952 0.24381325008351756 F
0.2438132500867365 0.7561867499139788 0.7561867499125482 F
0.24381225008351995 0.24381225008280474 0.756186749916482 F
0.24381325008566362 0.7561867499143364 0.24381325008637894 F
0.7561867499132634 0.24381325008602125 0.2438132500874518 F
0.7561867499143364 0.2438132500856636 0.756186749913621 F
