System
1.0
3.97325613339372 -0.0003324356925344 -1.58566960232e-05
-1.9870334221190724 5.445417148485851 -0.4348720478979489
2.93880811419e-05 0.0742805646698591 6.383515508858524
Hg C S N 
1 2 2 2 
direct
0.002174549869162191 0.9989197091042116 -0.0005553279365064107 Hg
0.7403047726879745 0.47493936185504854 0.7736380457932029 C
0.26443481897154986 0.522899936318741 0.2252381187562132 C
0.8738962094036646 0.7425214919583869 0.668475476877484 S
0.13087561481870527 0.2553213352591693 0.3304032206753217 S
0.643249432230779 0.280608678293102 0.8431829394788318 N
0.3614546020181656 0.717230487211332 0.1556935263554539 N
