System
1.0
3.7227306751319986 -6.447958937108527 -0.0
3.7227306751319986 6.447958937108527 -0.0
-0.0 -0.0 7.2183424401112495
K N 
6 2 
direct
0.273123681684924 -4.0888259493850814e-12 0.25 K
0.7268763183150758 4.0888303459514055e-12 0.75 K
0.2731236816808352 0.2731236816808352 0.75 K
-4.0888259493850814e-12 0.273123681684924 0.25 K
0.7268763183191645 0.7268763183191645 0.25 K
4.088774834800174e-12 0.7268763183150758 0.75 K
0.0 0.0 0.5 N
0.0 0.0 0.0 N
