System
1.0
3.11617959057137 0.0 0.0
0.0 3.11617959057137 0.0
-0.0 0.0 7.628047053778696
Ti Zn N 
2 1 2 
direct
0.5000002278178286 0.5000002278178286 0.1875651863240766 Ti
0.5000002278178286 0.5000002278178286 0.8124349731787558 Ti
0.0 0.0 0.5000000797446233 Zn
0.0 0.5000002278178286 0.67033193965575 N
0.5000002278178286 0.0 0.3296682198470826 N
