System
1.0
2.903684076026405 -5.02932731543838 0.0
2.903684006819308 5.029327355395125 -0.0
-0.0 -0.0 7.984641691877433
Li Mn O 
14 2 9 
direct
0.3585891548481298 0.2973486750604113 0.0947303821918131 Li
0.6414108451518706 0.7026513249395886 0.9052696178081872 Li
0.3123291755138003 0.3737799072999772 0.5856815654285525 Li
0.06123947978762301 0.3585891548476214 0.9052696178081872 Li
0.2973486750605094 0.9387605202127874 0.9052696178081872 Li
0.9385492682138032 0.31232917551392925 0.4143184345714472 Li
0.06145073178619685 0.6876708244860708 0.5856815654285525 Li
0.6262200926999959 0.9385492682139596 0.5856815654285525 Li
0.938760520212377 0.641410845152379 0.0947303821918131 Li
0.0 0.0 0.2603234335386856 Li
0.0 0.0 0.7396765664613142 Li
0.6876708244861998 0.6262200927000228 0.4143184345714472 Li
0.3737799073000042 0.06145073178604083 0.4143184345714472 Li
0.7026513249394909 0.061239479787212545 0.0947303821918131 Li
0.6666669999999968 0.3333330000000032 0.7470366154562975 Mn
0.3333330000000032 0.6666669999999968 0.252963384543703 Mn
0.3333330000000032 0.6666669999999968 0.0056601158328217 O
0.9796431725677855 0.3107281825795464 0.6586090223434752 O
0.020356827432214366 0.6892718174204536 0.341390977656525 O
0.3310840100135876 0.02035682743323093 0.6586090223434752 O
0.6666669999999968 0.3333330000000032 0.9943398841671783 O
0.6892718174186225 0.668915989987227 0.6586090223434752 O
0.3107281825813776 0.3310840100127729 0.341390977656525 O
0.0 0.0 0.0 O
0.6689159899864128 0.9796431725667687 0.341390977656525 O
