System
1.0
3.1570950123366255 0.003834082164223 10.260848342026065
1.5460552999175399 2.7526308555096386 10.260848342026065
0.0065418106741989 0.0038340836577871 10.73555854978209
Hf N 
4 3 
direct
0.6256414291831607 0.6256414291831607 0.6256414291831676 Hf
0.3753296869329686 0.37532968693296853 0.3753296869328179 Hf
0.7906156744180278 0.790615674418028 0.7906156744181664 Hf
0.20635218130316246 0.20635218130316246 0.20635218130316235 Hf
0.5007177846429222 0.5007177846429223 0.5007177846428839 N
0.0019059456459562002 0.0019059456459561998 0.0019059456459652997 N
0.9144372978738082 0.9144372978738082 0.9144372978738426 N
