System
1.0
-2.066487241307681 2.066487241307681 5.764086151917019
2.066487241307681 -2.066487241307681 5.764086151917019
2.066487241307681 2.066487241307681 -5.764086151917019
Ba B N 
2 1 2 
direct
0.6459340865096728 0.6459340865096729 4.460460317710681e-34 Ba
0.35406610567658336 0.35406610567658336 1.708386764340716e-35 Ba
0.0 0.0 0.0 B
0.8813177384214962 0.8813177384214962 4.26921750445926e-34 N
0.11868245377283888 0.11868245377283888 -3.033324574319491e-35 N
