System
1.0
5.304430715677222 4.760939e-10 -1.8753989187923412
-2.6522148567883126 4.5937710824480655 -1.8753989187923414
4.50999e-10 7.811529e-10 5.626197758928621
Si N 
6 8 
direct
0.75 0.375 0.625 Si
0.12499999999999996 0.875 0.24999999999999997 Si
0.37499999999999994 0.625 0.7499999999999999 Si
0.625 0.75 0.37500000000000006 Si
0.875 0.25 0.12500000000000006 Si
0.25 0.125 0.875 Si
0.062375935081963686 0.0623759350820341 0.062375935081975295 N
0.9376240649180339 0.5000000000000274 5.6634782833396267e-14 N
0.5000000000000452 4.509999999999999e-14 0.9376240649179818 N
-4.296099216218791e-14 0.9376240649178932 0.49999999999998634 N
0.5000000000000452 4.509999999999999e-14 0.4376240649179818 N
-4.290050263236646e-14 0.4376240649178934 0.4999999999999863 N
0.5623759350819638 0.5623759350820342 0.5623759350819753 N
0.437624064918034 0.5000000000000274 5.670968859628528e-14 N
