System
1.0
1.6554917311958033 -5.637943247139075 -0.0
1.6554917311958033 5.637943247139075 0.0
0.0 -0.0 8.779493211349909
Hf Zn N 
6 2 2 
direct
0.6282913551952949 0.37170864480470484 0.0474913093488954 Hf
0.37170864480470484 0.6282913551952948 0.5474913093488953 Hf
0.37170864480470484 0.6282913551952948 0.9525086906511047 Hf
0.6282913551952949 0.37170864480470484 0.4525086906511045 Hf
0.9530487337681384 0.046951266231861404 0.25 Hf
0.046951266231861404 0.9530487337681384 0.75 Hf
0.2553993695695277 0.7446006304304723 0.25 Zn
0.7446006304304723 0.2553993695695277 0.75 Zn
0.0 0.0 0.0 N
0.0 0.0 0.5 N
