System
1.0
0.0 0.0 -2.718937913291161
-1.4709505625006851 -2.548946705700901 0.0
-1.4709505625006851 2.548946705700901 0.0
Ru N 
1 1 
direct
0.0 0.9999738071164751 2.6192883524891147e-05 Ru
0.5 0.6667261928835236 0.3332738071164762 N
