System
1.0
3.061019215224496 -0.0005580262201389 -0.7271566889102801
-1.4458771658387712 5.311981645188298 -0.6357980826380843
0.0206636187244345 -0.0013108333531372 5.541797523968673
Li H O 
2 6 4 
direct
0.5000000000132947 0.34768195480362274 0.6523180451939322 Li
0.4999999999867051 0.6523180451963776 0.34768195480606734 Li
0.8562933546601549 0.018085576346975097 0.7537110396296617 H
0.1437066453511509 0.24628896036410508 0.9819144236560227 H
0.14370664533984473 0.9819144236530246 0.24628896037033832 H
0.31263377305421 0.7358147494686458 0.7358147494637141 H
0.68736622694579 0.2641852505313542 0.2641852505362868 H
0.8562933546488491 0.7537110396358951 0.018085576343977516 H
0.6045063273118984 0.7152553030617814 0.7152553030539806 O
0.39549367268810093 0.2847446969382186 0.28474469694602067 O
-6.457123632065294e-12 0.7924993115238668 0.2075006884774252 O
6.4571163357278214e-12 0.2075006884761334 0.7924993115225745 O
