System
1.0
-4.112287922313221 4.1122879238120476 -0.0598156094358971
4.1122879051165135 -0.0598156263862405 4.112287939263552
4.05247421239225 4.052474214383804 3.24018521e-08
Li Mn Ni O 
2 3 1 8 
direct
0.12279973711715785 0.25440152576568886 0.12279973711680164 Li
0.8772002628828417 0.7455984742343114 0.8772002628831983 Li
0.5 7.535593732212115e-20 -1.0012337955527702e-17 Mn
0.5 -7.920058006662824e-19 0.5 Mn
-7.153963340688161e-17 0.49999999999999994 0.5 Mn
0.49999999999999994 0.49999999999999994 0.5 Ni
0.7432899411906653 0.46672660038176816 0.28998345841227124 O
0.7379181575698164 0.024163684860374197 0.7379181575735216 O
0.28998345844308443 0.013422117629980699 0.7432899411908885 O
0.7432899411793558 0.4667266003620417 0.743289941206406 O
0.2567100588206441 0.5332733996379584 0.2567100587935936 O
0.7100165415569153 0.9865778823700194 0.25671005880911185 O
0.26208184243018356 0.9758363151396255 0.2620818424264781 O
0.2567100588093344 0.533273399618232 0.7100165415877288 O
