System
1.0
2.031434 2.031434 0.0
2.031434 0.0 -2.031434
0.0 2.031434 -2.031434
Ni N 
1 1 
direct
0.0 0.0 0.0 Ni
0.5 0.5 0.49999999999999994 N
