System
1.0
4.156467041141997 0.0 2.3997372512248187
1.3854890137139992 3.9187543768744 2.3997372512248187
-0.0 0.0 4.7994745024496375
C N 
6 8 
direct
0.12499999999999999 0.125 0.125 C
0.875 0.875 0.8749999999999999 C
0.49999999999999994 0.5 0.5 C
0.49999999999999994 0.5 -1.0323151993509477e-18 C
5.3687432106460304e-18 0.5 0.5 C
0.5 0.0 0.5 C
0.2555467116025232 0.2555467116028008 0.2555467116027574 N
0.7444532883974769 0.7444532883971994 0.26664013480807397 N
0.2666401348078399 0.7444532883971994 0.7444532883974769 N
0.7444532883971993 0.2666401348083952 0.7444532883971994 N
0.73335986519216 0.2555467116028008 0.2555467116025232 N
0.2555467116028008 0.7333598651916048 0.2555467116028009 N
0.2555467116025232 0.2555467116028008 0.7333598651919259 N
0.7444532883974769 0.7444532883971994 0.7444532883972428 N
