System
1.0
3.9125526457374873 0.0340909588393874 -0.440889331833144
2.0480658946215344 -5.200175464794695 0.1761193557786242
0.419517213139643 -3.9241995131538 -2.3048801362470273
Ge N 
2 2 
direct
0.1352862836426286 -0.008058502169426598 0.3937843231316531 Ge
0.46501097810605696 0.32583399272358704 0.48660367014129596 Ge
-0.012325555792010664 0.5650034474531591 0.5727877234448613 N
0.6126115426233703 0.7527530318288882 0.3076201324222776 N
