System
1.0
3.508601148706294 0.0023739043730606 0.00265022378476
1.7488297185785855 6.477453387325668 -0.0401831489065983
1.747528446937879 1.6226951885104415 5.382661327119045
Zn Co N 
4 2 4 
direct
0.6531570379309767 0.497270717891464 0.200967520022194 Zn
0.3498682298267805 0.5032368947900765 0.8014641213368717 Zn
0.11621383434297984 0.17413921360952164 0.5985840225796321 Zn
0.8868365985411563 0.8263646799317701 0.4038685227383682 Zn
0.3832517825717849 0.1061819242735346 0.1319393723507991 Co
0.6197875192224759 0.8943229813784201 0.8705171410009981 Co
0.20246875259164046 0.3530886930110528 0.2464219223381758 N
0.8005586260534854 0.6474180707399552 0.756030816309201 N
0.4849300133167309 0.8125157439157417 0.2211807699142559 N
0.5181136056019819 0.18799208045845373 0.7812787914094996 N
