System
1.0
0.0 7.416254737166181 0.0180440738522134
6.08989844182706 0.0 0.0
0.0 -3.691278287785785 -6.433235479250209
Fe H Br N 
2 8 6 2 
direct
4.0742793482399995e-05 0.013181064503801701 3.3536481528e-05 Fe
0.9999592572065171 0.5131810645038014 0.999966463518473 Fe
0.46625640454341727 0.7901659171463847 0.800411035069195 H
0.3342762304001897 0.7886646103383772 0.5333201268792991 H
0.33433173612132217 0.5656566892075848 0.6675652235610556 H
0.19914068459402656 0.7887780289231973 0.665368443983702 H
0.800859315405973 0.2887780289231962 0.33463155601629757 H
0.6657237695998107 0.2886646103383769 0.4666798731207007 H
0.6656682638786782 0.0656566892075853 0.3324347764389446 H
0.5337435954565829 0.2901659171463846 0.1995889649308057 H
0.2028023727933324 0.2649222281064142 0.8739999710374012 Br
0.6710920989461633 0.264891816993815 0.7971253928185922 Br
0.12587615853391476 0.2649083449885736 0.3287554325813323 Br
0.7971976272066671 0.764922228106414 0.1260000289625987 Br
0.32890790105383644 0.7648918169938155 0.20287460718140843 Br
0.8741238414660857 0.7649083449885731 0.6712445674186672 Br
0.6665186090051458 0.2358332997918507 0.3333514095549652 N
0.3334813909948541 0.7358332997918511 0.6666485904450353 N
