System
1.0
3.900062895004072 -0.0 -0.0
-0.0 3.900062895004072 -0.0
0.0 0.0 3.900062895004072
Mn N F 
1 1 3 
direct
0.0 0.0 0.0 Mn
0.5 0.5 0.5 N
0.0 0.0 0.5 F
0.0 0.5 0.0 F
0.5 0.0 0.0 F
