System
1.0
6.250327265430914 0.0 0.0
0.0 6.250327265430915 0.0
0.0 0.0 7.972297070857521
Rb I N 
4 2 6 
direct
0.0 0.0 0.2619617283849253 Rb
0.0 0.0 0.7380382716150745 Rb
0.5 0.5 0.7380382716150745 Rb
0.5 0.5 0.2619617283849253 Rb
0.5 0.0 0.0 I
0.0 0.5 0.0 I
0.8656943447157845 0.36569434471578444 0.49999999999999994 N
0.6343056552842157 0.8656943447157845 0.49999999999999994 N
0.36569434471578444 0.1343056552842156 0.49999999999999994 N
0.1343056552842156 0.6343056552842157 0.49999999999999994 N
0.0 0.5 0.49999999999999994 N
0.5 0.0 0.49999999999999994 N
