System
1.0
-5.011906700417119 -5.011906700417119 0.0
-5.011906700417119 0.0 -5.011906700417119
-0.0 -5.011906700417119 -5.011906700417119
Se Br N 
1 6 2 
direct
0.0 0.0 0.0 Se
0.7435369797854591 0.2564630202145409 0.256463020214541 Br
0.7435369797854592 0.25646302021454087 0.7435369797854592 Br
0.7435369797854592 0.7435369797854592 0.25646302021454087 Br
0.25646302021454087 0.7435369797854591 0.7435369797854592 Br
0.2564630202145409 0.7435369797854591 0.256463020214541 Br
0.25646302021454104 0.256463020214541 0.7435369797854591 Br
0.25 0.25 0.25 N
0.75 0.75 0.7500000000000001 N
