System
1.0
6.7561590158067775 1.391155e-10 3.9006705187650574
2.252052338917693 6.369767847662976 3.900670518765057
-1.596842e-10 -1.129138e-10 7.8013400380831035
Ni Mo N 
12 12 4 
direct
0.6303320384268796 0.2898893205243755 0.2898893205243761 Ni
0.49999999999999994 0.5 0.5 Ni
1.4889532875055925e-17 0.5 0.49999999999999994 Ni
0.28988932052437555 0.6303320384268795 0.2898893205243762 Ni
0.7101106794756243 0.7101106794756242 0.710110679475624 Ni
0.2898893205243757 0.2898893205243758 0.289889320524376 Ni
0.5 0.0 0.5 Ni
0.7101106794756238 0.7101106794756238 0.36966796157312115 Ni
0.2898893205243761 0.2898893205243762 0.6303320384268788 Ni
0.49999999999999994 0.5 -3.70681090737971e-18 Ni
0.7101106794756245 0.3696679615731204 0.7101106794756238 Ni
0.3696679615731202 0.7101106794756246 0.7101106794756238 Ni
0.6711611031855965 0.6711611031856145 0.07883889681436602 Mo
0.07883889681445816 0.6711611031855793 0.07883889681437307 Mo
0.9211611031855418 0.3288388968144205 0.921161103185627 Mo
0.9211611031855703 0.328838896814449 0.3288388968143822 Mo
0.07883889681440351 0.0788388968143855 0.671161103185634 Mo
0.671161103185542 0.0788388968144205 0.671161103185627 Mo
0.07883889681442961 0.6711611031855508 0.6711611031856181 Mo
0.9211611031855965 0.9211611031856145 0.328838896814366 Mo
0.3288388968144296 0.9211611031855509 0.921161103185618 Mo
0.3288388968144581 0.9211611031855793 0.328838896814373 Mo
0.3288388968144036 0.3288388968143855 0.9211611031856339 Mo
0.6711611031855703 0.0788388968144491 0.07883889681438212 Mo
0.5 0.0 -1.853405453689855e-18 N
0.0 0.0 0.0 N
0.0 0.0 0.5 N
1.4889532875055925e-17 0.5 -5.736455668494768e-17 N
