System
1.0
3.8353970016195436 -0.0 -0.0
-0.0 3.8353970016195436 -0.0
0.0 0.0 3.8353970016195436
Cr Pt N 
3 1 1 
direct
0.5 0.0 0.5 Cr
0.0 0.5 0.5 Cr
0.5 0.5 0.0 Cr
0.0 0.0 0.0 Pt
0.5 0.5 0.5 N
