System
1.0
3.692484759317385 -0.0036940098894914 0.015432928389289
-0.1106601332994054 6.355491418468006 0.0434100840501674
-0.7652245419278019 -2.301093915112665 6.190347822679069
Sr W N 
2 2 6 
direct
0.033590184388668086 0.9181566310054684 0.3573223287498559 Sr
0.9715062232722445 0.3855000381440076 0.8885134217228045 Sr
0.5193398672317742 0.4186796486031985 0.36752539453474503 W
0.44458154641251957 0.8948565219804802 0.8714451761430605 W
0.035401258145250476 0.487997091764911 0.312113838283405 N
0.6183027725354722 0.7585562933999441 0.5708562180778173 N
0.4843107599854103 0.717967820233667 0.0343601377205828 N
0.9188184568627152 0.872915150908606 0.7349220460891787 N
0.5312263834116273 0.2474096227297803 0.5352063555893746 N
0.4913225477543118 0.19308118122994256 0.05803508308916709 N
