System
1.0
4.687567660885845 -0.0052079710248351 -1.911137370844742
-2.5679425992112996 4.182588999509845 -1.239910314522115
-0.0031979563234881 0.0052079673020071 5.062186044471955
Fe N 
8 1 
direct
0.5 0.25 0.75 Fe
-5.910777002734766e-14 0.2943729982304124 0.2943729982295019 Fe
5.905897433722799e-14 0.7056270017695876 0.705627001770498 Fe
0.48708661406354115 0.24354280703182124 0.24354280703168185 Fe
1.393152970701612e-13 0.24354280703240513 0.7564571929683616 Fe
-1.3931127518872445e-13 0.7564571929675948 0.24354280703163847 Fe
0.5129133859364585 0.7564571929681788 0.7564571929683184 Fe
0.49999999999999994 0.7499999999999999 0.25 Fe
0.0 0.0 0.0 N
