System
1.0
1.5605737180083146 -2.70299205671436 -0.0
1.5605737180083146 2.70299205671436 0.0
0.0 0.0 9.71720666550497
Fe C N 
2 2 4 
direct
0.0 0.0 0.5 Fe
0.0 0.0 0.0 Fe
0.3333330000000032 0.6666669999999968 0.25 C
0.6666669999999968 0.3333330000000032 0.7499999999999999 C
0.6666669999999968 0.3333330000000032 0.8770060824148476 N
0.3333330000000032 0.6666669999999968 0.3770060824148476 N
0.3333330000000032 0.6666669999999968 0.1229939175851525 N
0.6666669999999968 0.3333330000000032 0.6229939175851525 N
