System
1.0
3.344009267591426 0.0 0.0
0.0 3.344009267591426 0.0
0.0 -0.0 3.722980576229121
Ge H O 
1 1 2 
direct
0.5000003908102997 0.5000003908102997 0.5352722089427103 Ge
0.0 0.0 0.8491798063256449 H
0.0 0.0 0.5835257361824755 O
0.5000003908102997 0.5000003908102997 0.0420221464815576 O
