System
1.0
6.421903225474074 -1.7611675e-08 3.7076880789993982
2.1406347145686824 6.0546287453154 3.7076880789993965
-1.82329465e-08 -1.28926404e-08 7.41537522153387
K Ba Co N O 
2 1 1 6 12 
direct
0.75 0.75 0.75 K
0.24999999999999997 0.25 0.25 K
0.49999999999999994 0.5 0.5 Ba
0.0 0.0 0.0 Co
0.18526014227373894 0.8147398577249768 0.1852601422748905 N
0.8147398577262609 0.1852601422750228 0.8147398577251094 N
0.8147398577206032 0.18526014226936488 0.18526014227926482 N
0.8147398577239582 0.8147398577327061 0.18526014227732596 N
0.18526014227939702 0.8147398577306351 0.8147398577207351 N
0.18526014227604223 0.1852601422672938 0.814739857722674 N
0.3509020389534376 0.1431318786489124 0.6490979610463732 O
0.14313187865310587 0.8568681213465826 0.6490979610428682 O
0.3509020389580292 0.64909796104364 0.856868121346014 O
0.6490979610465628 0.8568681213510878 0.35090203895362654 O
0.8568681213427565 0.6490979610394159 0.14313187865722854 O
0.8568681213455003 0.350902038962705 0.649097961045043 O
0.3509020389558696 0.8568681213521623 0.14313187865556817 O
0.6490979610419708 0.3509020389563599 0.14313187865398552 O
0.856868121346894 0.1431318786534172 0.350902038957132 O
0.14313187865724347 0.35090203896058436 0.8568681213427712 O
0.6490979610441303 0.1431318786478379 0.856868121344432 O
0.14313187865449964 0.6490979610372951 0.3509020389549573 O
