System
1.0
4.653972777180822 -0.0 0.0
0.0 4.653972777180822 0.0
-0.0 0.0 6.133442068418101
V O F 
4 4 4 
direct
0.0319420585132804 0.0319420585132804 0.0 V
0.9680579414867198 0.9680579414867198 0.49999999999999994 V
0.5319420585132805 0.46805794148671964 0.75 V
0.46805794148671964 0.5319420585132805 0.24999999999999997 V
0.1849730433709914 0.8150269566290086 0.24999999999999997 O
0.6849730433709915 0.6849730433709915 0.49999999999999994 O
0.3150269566290087 0.3150269566290087 0.0 O
0.8150269566290086 0.1849730433709914 0.75 O
0.207331195622756 0.7926688043772444 0.75 F
0.7073311956227557 0.7073311956227557 0.0 F
0.2926688043772439 0.2926688043772439 0.49999999999999994 F
0.7926688043772444 0.207331195622756 0.24999999999999997 F
