System
1.0
5.527592597376463 0.0 0.0
-0.0 8.238941862944444 0.0
0.0 0.0 8.238941862944444
Bi O 
8 12 
direct
0.2196333502018258 0.2509837331904071 0.5149853884976776 Bi
0.7803666497981742 0.5149853884976776 0.749016266809593 Bi
0.2196333502018258 0.749016266809593 0.4850146115023224 Bi
0.2196333502018258 0.7509837331904069 0.9850146115023224 Bi
0.2196333502018258 0.24901626680959288 0.0149853884976776 Bi
0.7803666497981742 0.0149853884976776 0.750983733190407 Bi
0.7803666497981742 0.9850146115023224 0.24901626680959288 Bi
0.7803666497981742 0.4850146115023224 0.2509837331904071 Bi
0.0 0.7520726038236211 0.2520726038236212 O
0.5 0.374283156024506 0.1257168439754939 O
0.5 0.6257168439754934 0.8742831560245066 O
0.5 0.0 0.0 O
0.0 0.24792739617637857 0.7479273961763789 O
0.5 0.1257168439754939 0.6257168439754934 O
0.0 0.5 0.0 O
0.0 0.7479273961763789 0.7520726038236211 O
0.0 0.0 0.5 O
0.0 0.2520726038236213 0.24792739617637857 O
0.5 0.8742831560245066 0.374283156024506 O
0.5 0.5 0.5 O
