System
1.0
2.760708263696359 0.0801816478707172 -0.6518273830461051
-0.6591426170278287 9.428623601307896 -1.6600450804921518
0.0533125087830857 -0.0281189539124209 6.39345395163492
Li Mn O 
6 4 10 
direct
0.9000043769067021 0.6999998813259655 0.7999930272786057 Li
0.40000938296820854 0.200002753353468 0.8000051850387517 Li
0.0895381784101846 0.29475648384643804 0.1790776083152053 Li
0.7104951388628334 0.10524429693852821 0.4209295048705748 Li
0.495401863912352 0.4887285335818136 0.9912714635677551 Li
0.30463634662930644 0.9112781112948647 0.6087333444685407 Li
0.9966301799821128 0.0054498566787924 0.9935784509446193 Mn
0.6017315766611239 0.7993748379165688 0.2034971888733887 Mn
0.8033464314312111 0.39454781948501566 0.6064209246517642 Mn
0.19824724870253002 0.6006210808145077 0.3964964048054572 Mn
0.14302935922096183 0.9372131250245836 0.2866809317522122 O
0.5479226704125334 0.13355577214194433 0.09659119290040148 O
0.2520715902875171 0.2664415386167815 0.5034134448868132 O
0.33872579916955176 0.5420949400894784 0.6777887704000778 O
0.46126310528565595 0.8579040308669558 0.9222057448699703 O
0.9393542870714288 0.35623985883546755 0.8786183465481746 O
0.8606506630602297 0.0437653307916471 0.7213865894777671 O
0.7433308679524036 0.7399669249626244 0.487293772754771 O
0.05665477387777399 0.6600318827029004 0.1127000782489993 O
0.6569551591953736 0.4627829407316554 0.3133190253461549 O
