System
1.0
6.7892539951502195 1.714397268039671 1.9815106664762818
1.0044332449401119 -3.3633301430554003 1.0319530070702199
1.4928314294405158 1.556345869951757 -3.0641359018863463
As N 
2 2 
direct
0.7423752847605529 0.4449975903493537 0.2897631966810321 As
0.5414992912608229 0.24493257848455988 0.7861821037162204 As
0.18552007295216233 0.38007592162852344 0.5359217423786603 N
0.10683193807981087 0.1208946792859517 0.4415398435567612 N
