System
1.0
3.0081691632393497 3.0081691632393497 0.0
3.0081691632393497 0.0 -3.0081691632393497
0.0 3.0081691632393497 -3.0081691632393497
Pd N 
3 1 
direct
0.49999999999999994 0.5 0.5000000000000001 Pd
0.24999999999999997 0.25 0.25000000000000006 Pd
0.7500000000000001 0.7500000000000001 0.75 Pd
0.0 0.0 0.0 N
