System
1.0
1.244827740386369 0.7187016310134587 4.28570949682701
-1.244827740386369 0.7187016310134587 4.28570949682701
-0.0 -1.4374032620269175 4.28570949682701
Be C N 
1 1 2 
direct
0.0 0.0 0.0 Be
0.5000006156407296 0.5000006156407296 0.49999757813600354 C
0.7602506102958722 0.7602506102958723 0.7602459752130408 N
0.2397506209787587 0.23975062097875877 0.239749181052131 N
