System
1.0
0.2011443202590924 0.1161305982992551 -4.999511376948514
-2.848597038561592 -4.654849994165944 0.2170396467964556
-2.606919013442081 4.515317232845242 3.073899e-10
Ge N F 
1 2 6 
direct
0.0 0.0 0.0 Ge
0.6837743075319282 0.4675775230399519 0.7337882615199819 N
0.3162256924680715 0.5324224769600405 0.26621173848001817 N
0.27313427378263955 0.7912507980666037 0.8956263990333034 F
0.180291840992488 0.24940088295908536 0.8906001467673206 F
0.1802918409924896 0.24940088295908386 0.3587997361917597 F
0.7268657262173605 0.20874920193339616 0.10437360096669672 F
0.8197081590075119 0.750599117040914 0.10939985323267938 F
0.8197081590075106 0.7505991170409156 0.6412002638082402 F
