System
1.0
3.7432481155913666 -0.6028503754925849 0.0
-0.3170983625961943 5.053304925120066 0.0
0.0 0.0 3.6044002527011885
C N Cl 
1 1 1 
direct
0.7030925526100079 0.03776203424692692 0.0 C
-0.5021452027409972 -0.17097188517127102 0.0 N
-0.017787268374618595 0.3311286040049871 0.0 Cl
