System
1.0
2.978744922075385 0.0 0.0
0.0 2.978744922075385 -0.0
-0.0 0.0 5.496372076947667
Ca Si N 
1 1 2 
direct
0.4999994667664822 0.4999994667664822 0.5427250566394975 Ca
0.0 0.0 0.0850388756797067 Si
0.0 0.0 0.3885917184519065 N
0.4999994667664822 0.4999994667664822 0.9936435050900346 N
