System
1.0
-2.2912008369397223 -2.2912008369397223 0.0
-2.2912008369397223 0.0 -2.2912008369397223
0.0 -2.2912008369397223 -2.2912008369397223
Ag N 
1 1 
direct
0.0 0.0 0.0 Ag
0.5000000000000001 0.4999999999999999 0.4999999999999999 N
