System
1.0
4.709513850988565 -3.554123e-10 4.027317304992722
4.709513850633153 4.709513850633153 0.0
7.108248e-10 -7.108248e-10 8.054635587228297
Ba Zn N 
2 4 4 
direct
0.0 0.0 0.25 Ba
0.0 0.0 0.75 Ba
0.7310385796468724 0.5 0.6344807101767252 Zn
0.2689614203531274 0.5 0.365519289823275 Zn
0.2689614203531275 0.2310385796468724 0.8655192898232749 Zn
0.7310385796468725 0.7689614203531275 0.13448071017672497 Zn
0.6731904969007436 0.5 0.16340475154951947 N
0.3268095030992564 0.5 0.8365952484504805 N
0.3268095030992563 0.1731904969007437 0.33659524845048056 N
0.6731904969007436 0.8268095030992564 0.6634047515495195 N
