System
1.0
4.52214613727962 -0.0235322988338681 0.0932732753164838
-2.2218771626356526 6.032521306365801 -0.0974030253642713
0.331122126935194 0.0722853067423051 8.844217606827636
H C S N 
9 13 1 1 
direct
0.5504493988653814 0.1247198365448749 0.7984368962270978 H
0.6856219306790826 0.2989135609810852 0.34634344824278107 H
0.9673431855374297 0.1244851913582023 0.963029391885933 H
0.10045021842289174 0.6929645717172895 0.0782939207526938 H
0.27404833555488634 0.868451246529956 0.6275586999171309 H
0.402592653001951 0.6925377249339957 0.8472900539629913 H
0.4050857460299096 0.8688825937062663 0.2978608852652805 H
0.3848868102526928 0.12449936437156141 0.12730642150891472 H
0.4242774935427863 0.29914184591254395 0.5792378087115456 H
0.389049295430495 0.28858576396726277 0.16494327193563882 C
0.642193618893768 0.3870478579120679 0.6353433922150197 C
0.5555548270497882 0.3869673562336703 0.29024344653054834 C
0.7102298258002652 0.2886698514566229 0.7607388596946244 C
0.8401290573852207 0.6004502280714581 0.5859840955666641 C
0.22981136972147895 0.3985757455718663 0.08387199549349642 C
0.4070250659453772 0.7079986272578661 0.2574383709579707 C
0.9791906319822025 0.39851233511213424 0.8418271031805294 C
0.24003357627467367 0.6110046416778371 0.1333536742620315 C
0.11135172451160455 0.7077259522611592 0.6680499204692829 C
0.18123843869556056 0.6107446172066584 0.7922327464448763 C
0.7649704273947456 0.7192730288892861 0.46271943456645404 C
0.5709986224091201 0.6005333364429533 0.3395139988980282 C
0.9037181668012271 0.9966858705407429 0.4626282408049461 S
0.05214757981746416 0.29392185134265514 0.9629069225055175 N
