System
1.0
7.235784758479548 -0.0268652957779081 4.20670627352931
2.4075662564135074 6.823556587882032 4.206706272885326
-0.0381180152896982 -0.0268652911583674 8.369676868180495
Li Ge P O 
2 4 6 24 
direct
0.0 0.0 0.0 Li
0.5 0.5 0.5 Li
0.13989693133466463 0.13989693133467657 0.13989693133409153 Ge
0.36010306866533537 0.36010306866532343 0.36010306866590863 Ge
0.8601030686653356 0.8601030686653229 0.8601030686659087 Ge
0.6398969313346646 0.6398969313346768 0.6398969313340913 Ge
0.749999999999926 0.46111564484316003 0.038884355156302876 P
0.4611156448434592 0.038884355156659695 0.7499999999998938 P
0.03888435515661481 0.75000000000018 0.46111564484380335 P
0.25000000000007383 0.53888435515684 0.961115644843697 P
0.5388843551565412 0.9611156448433398 0.2500000000001063 P
0.9611156448433853 0.24999999999982006 0.5388843551561965 P
0.26404057175361145 0.05572079828653449 0.9201655502815586 O
0.5557207982861577 0.76404057175405 0.42016555028143193 O
0.9442792017127863 0.07983444971741338 0.7359594282465423 O
0.07983444971815275 0.7359594282463862 0.9442792017153072 O
0.7359594282463886 0.9442792017134646 0.07983444971844174 O
0.23595942824650104 0.5798344497184558 0.4442792017148563 O
0.5798344497169844 0.4442792017128601 0.23595942824686636 O
0.44427920171384255 0.23595942824594965 0.5798344497185685 O
0.055720798287213935 0.9201655502825861 0.2640405717534578 O
0.9201655502818468 0.26404057175361373 0.055720798284692924 O
0.8719310266374624 0.6973413297844406 0.49343030341948957 O
0.12806897336253767 0.30265867021555903 0.5065696965805105 O
0.4934303034208373 0.871931026639422 0.6973413297863434 O
0.00656969658061925 0.8026586702158471 0.6280689733631439 O
0.8026586702152617 0.6280689733622266 0.006569696580990697 O
0.6280689733611119 0.0065696965789074 0.8026586702133989 O
0.42016555028301605 0.5557207982871404 0.7640405717531337 O
0.302658670215292 0.5065696965808446 0.12806897336336653 O
0.5065696965791622 0.12806897336057796 0.30265867021365556 O
0.9934303034193807 0.1973413297841531 0.37193102663685634 O
0.1973413297847383 0.3719310266377736 0.9934303034190093 O
0.37193102663888855 0.9934303034210928 0.1973413297866013 O
0.6973413297847073 0.49343030341915584 0.8719310266366329 O
0.7640405717534993 0.42016555028154456 0.5557207982851439 O
