System
1.0
4.849570414623039 -0.0 0.0
0.0 4.849570414623039 0.0
-0.0 -0.0 4.849570414623039
Ce Al N 
3 1 1 
direct
0.5 0.5 0.0 Ce
0.5 0.0 0.5 Ce
0.0 0.5 0.5 Ce
0.0 0.0 0.0 Al
0.5 0.5 0.5 N
