System
1.0
3.941643981087489 -3.39e-14 -1.1710456068725685
-0.347648644556908 3.926718343718837 -1.1701569770716957
0.0213057100370032 0.0214525569114361 7.2908621306279615
Ba Pd N 
2 1 2 
direct
0.8534269906160721 0.8534269906160722 0.2068529712321457 Ba
0.146573009383928 0.1465730093839281 0.7931470287678543 Ba
0.49999999999999994 0.5000000000000001 0.5 Pd
0.35572997474119045 0.3557299747411908 0.211460939482377 N
0.6442700252588096 0.6442700252588093 0.788539060517623 N
