System
1.0
0.3483292696598304 5.1584955021663665 15.936217205291
-2.1123361226639386 2.9613570348174076 5.614995167359988
-1.0064744579406955 -4.205636892244146 -7.423460426939966
Y O F 
2 2 2 
direct
0.7586025693383647 0.7073481032678735 5.488563557186542e-10 Y
0.24139743066163555 0.29265189673212666 -5.488564797934339e-10 Y
0.12123692268045647 0.8938322557175408 1.0857772111490845e-09 O
0.8787630773195436 0.10616774428245926 -1.085777712441079e-09 O
0.3696736043585642 0.6518756621859882 -9.076817009625227e-10 F
0.6303263956414361 0.34812433781401203 9.076815983163622e-10 F
