System
1.0
2.49620552144646 -4.323652678351568 -6.77502599734e-05
2.4961291551391263 4.3236091272294335 6.52771059972e-05
-6.2054778601e-06 0.0001669869524073 11.569036143008756
Ga As O 
3 3 12 
direct
0.44670130833464383 -1.3960687382894932e-06 0.333324762721226 Ga
4.4290069987149725e-06 0.44670110773965643 0.6666556010634235 Ga
0.5533025744270889 0.553304228217749 0.9999912767159744 Ga
0.44414182846801886 -1.8589899211629955e-06 0.8333214424814871 As
-6.1751975865092185e-06 0.44413750024112725 0.16665914419433323 As
0.5558648474256824 0.5558630970711446 0.4999915471306962 As
0.3025099977981127 0.39030568749124667 0.1299554004566638 O
0.9122283425338392 0.6097083883264135 0.5366873739152082 O
0.6974516289860805 0.08777148776617655 0.20335402153012702 O
0.39031279704472316 0.30251997258367574 0.8700241262629097 O
0.6073214032146679 0.9312016030472972 0.9523177997944168 O
0.9311916902331743 0.6073222812018741 0.04766484624727 O
0.32387417850853617 0.3926896184776632 0.6189824746201765 O
0.0877753175357612 0.697453365646816 0.7966269013448529 O
0.6761142217440765 0.06880626447092093 0.7143274921837369 O
0.3926929800605384 0.32387437665049806 0.3809982372051776 O
0.06880712583490543 0.6761108674131727 0.2856551883169354 O
0.6097115040407359 0.9122344087132395 0.4632943638153694 O
