System
1.0
2.824125517724048 -4.8915285103603345 0.0
2.824125517724048 4.8915285103603345 0.0
-0.0 -0.0 5.217060431928221
Zr O 
6 2 
direct
0.3398523189361306 -4.196875643442315e-13 0.5 Zr
0.6601476810638695 4.1966657616050836e-13 0.0 Zr
0.339852318935711 0.339852318935711 0.0 Zr
-4.196875643442315e-13 0.3398523189361306 0.5 Zr
0.6601476810642891 0.6601476810642891 0.5 Zr
4.1966657616050836e-13 0.6601476810638695 0.0 Zr
0.6666669999999968 0.3333330000000032 0.25 O
0.3333330000000032 0.6666669999999968 0.75 O
