System
1.0
10.7897909415273 -0.0 0.0
0.0 10.7897909415273 0.0
0.0 0.0 10.7897909415273
Si O 
24 48 
direct
0.25 0.1367606438419643 0.36323935615803576 Si
0.6367606438419642 0.25 0.1367606438419643 Si
0.25 0.8632393561580358 0.36323935615803576 Si
0.36323935615803576 0.7500000000000001 0.1367606438419643 Si
0.8632393561580358 0.6367606438419642 0.7500000000000001 Si
0.7500000000000001 0.8632393561580358 0.6367606438419642 Si
0.7500000000000001 0.1367606438419643 0.36323935615803576 Si
0.6367606438419642 0.7500000000000001 0.1367606438419643 Si
0.25 0.8632393561580358 0.6367606438419642 Si
0.1367606438419643 0.6367606438419642 0.25 Si
0.7500000000000001 0.1367606438419643 0.6367606438419642 Si
0.7500000000000001 0.8632393561580358 0.36323935615803576 Si
0.6367606438419642 0.7500000000000001 0.8632393561580358 Si
0.1367606438419643 0.6367606438419642 0.7500000000000001 Si
0.8632393561580358 0.36323935615803576 0.7500000000000001 Si
0.36323935615803576 0.25 0.1367606438419643 Si
0.6367606438419642 0.25 0.8632393561580358 Si
0.36323935615803576 0.25 0.8632393561580358 Si
0.1367606438419643 0.36323935615803576 0.25 Si
0.25 0.1367606438419643 0.6367606438419642 Si
0.36323935615803576 0.7500000000000001 0.8632393561580358 Si
0.8632393561580358 0.36323935615803576 0.25 Si
0.1367606438419643 0.36323935615803576 0.7500000000000001 Si
0.8632393561580358 0.6367606438419642 0.25 Si
0.0 0.6475243662987388 0.1844455905850861 O
0.3155544094149139 0.8524756337012612 0.5 O
0.7500000000000001 0.6499697192448218 0.14996971924482191 O
0.14996971924482191 0.7500000000000001 0.6499697192448218 O
0.6475243662987388 0.1844455905850861 0.0 O
0.7500000000000001 0.3500292807551734 0.8500302807551783 O
0.1475243662987387 0.5 0.6844455905850862 O
0.6844455905850862 0.1475243662987387 0.5 O
0.6475243662987388 0.8155544094149138 0.0 O
0.14996971924482191 0.25 0.3500292807551734 O
0.6499697192448218 0.8500302807551783 0.7500000000000001 O
0.25 0.6499697192448218 0.14996971924482191 O
0.14996971924482191 0.7500000000000001 0.3500292807551734 O
0.7500000000000001 0.6499697192448218 0.8500302807551783 O
0.1844455905850861 0.0 0.6475243662987388 O
0.25 0.3500292807551734 0.8500302807551783 O
0.8155544094149138 0.0 0.6475243662987388 O
0.8524756337012612 0.5 0.6844455905850862 O
0.1475243662987387 0.5 0.3155544094149139 O
0.14996971924482191 0.25 0.6499697192448218 O
0.5 0.6844455905850862 0.1475243662987387 O
0.8155544094149138 0.0 0.3524756337012613 O
0.6844455905850862 0.8524756337012612 0.5 O
0.3500292807551734 0.8500302807551783 0.25 O
0.8500302807551783 0.25 0.6499697192448218 O
0.3500292807551734 0.14996971924482191 0.7500000000000001 O
0.8500302807551783 0.7500000000000001 0.3500292807551734 O
0.6499697192448218 0.14996971924482191 0.7500000000000001 O
0.5 0.3155544094149139 0.1475243662987387 O
0.3500292807551734 0.14996971924482191 0.25 O
0.0 0.3524756337012613 0.8155544094149138 O
0.0 0.6475243662987388 0.8155544094149138 O
0.5 0.6844455905850862 0.8524756337012612 O
0.7500000000000001 0.3500292807551734 0.14996971924482191 O
0.6499697192448218 0.14996971924482191 0.25 O
0.3500292807551734 0.8500302807551783 0.7500000000000001 O
0.8500302807551783 0.25 0.3500292807551734 O
0.1844455905850861 0.0 0.3524756337012613 O
0.3524756337012613 0.8155544094149138 0.0 O
0.25 0.6499697192448218 0.8500302807551783 O
0.3155544094149139 0.1475243662987387 0.5 O
0.0 0.3524756337012613 0.1844455905850861 O
0.6499697192448218 0.8500302807551783 0.25 O
0.8524756337012612 0.5 0.3155544094149139 O
0.3524756337012613 0.1844455905850861 0.0 O
0.5 0.3155544094149139 0.8524756337012612 O
0.8500302807551783 0.7500000000000001 0.6499697192448218 O
0.25 0.3500292807551734 0.14996971924482191 O
