System
1.0
5.427830637493456 0.0077039914913069 5.759472320886906
2.291353048104433 4.920478905649201 5.759472319568617
0.0120663272446584 0.0077039969065855 7.9140834807170615
Ba As O 
3 2 8 
direct
0.7940904125602523 0.7940904125603877 0.794090412560121 Ba
0.20590958743974774 0.2059095874396125 0.2059095874398788 Ba
0.0 0.0 0.0 Ba
0.5925812362398108 0.5925812362398221 0.5925812362398006 As
0.407418763760189 0.4074187637601778 0.4074187637601992 As
0.6723969021746176 0.6723969021746774 0.6723969021745594 O
0.327603097825383 0.327603097825323 0.3276030978254408 O
0.7265758202007186 0.7265758202007014 0.24314214326449515 O
0.7265758202006138 0.24314214326441302 0.7265758202008166 O
0.24314214326454947 0.7265758202005562 0.7265758202007745 O
0.27342417979938577 0.7568578567355867 0.27342417979918365 O
0.27342417979928196 0.2734241797992985 0.7568578567355044 O
0.7568578567354509 0.2734241797994442 0.27342417979922506 O
