System
1.0
6.419141579617505 -0.0298262557041753 -0.250769626540033
-0.2595904137764127 6.4139603017106745 -0.2507696210517451
-0.0287763242270061 -0.0298262498295466 6.423973958738692
Ca Ti Ni O 
6 2 2 12 
direct
0.6085568949011859 0.8914441050987245 0.2500000000000945 Ca
0.10855689490119019 0.7500000000000989 0.39144410509871025 Ca
0.7499999999999956 0.3914431050986281 0.10855689490138172 Ca
0.3914441050988116 0.10855589490127572 0.7499999999999057 Ca
0.89144310509881 0.24999999999990136 0.6085558949012898 Ca
0.2500000000000043 0.6085568949013721 0.8914431050986186 Ca
0.49999900000000247 0.4999990000000026 0.49999900000000264 Ti
0.0 0.0 0.0 Ti
0.75 0.75 0.7500000000000001 Ni
0.25 0.25000000000000006 0.25 Ni
0.5430243910083946 0.20668161659457884 0.4194955847855343 O
0.9569756089915934 0.08050341521446391 0.2933193834054196 O
0.08050441521461062 0.2933193834055385 0.956975608991338 O
0.2933193834052539 0.9569756089915027 0.08050341521470782 O
0.9194955847853893 0.7066806165944616 0.04302439100866191 O
0.2066816165947336 0.41949558478526294 0.5430253910085296 O
0.4569756089916053 0.7933193834054189 0.5805044152144656 O
0.5805044152145888 0.45697560899135337 0.7933193834055294 O
0.793319383405264 0.5805034152147327 0.45697460899147047 O
0.41949558478541144 0.5430243910086465 0.20668061659447062 O
0.043025391008411504 0.9194965847855366 0.7066806165945807 O
0.7066806165947462 0.04302439100849761 0.9194965847852922 O
