System
1.0
1.7360956152352292 -2.643752198330745 -5.1698050610716875
1.7360956033715058 -5.806574340105275 -3.1456049e-09
-3.4337349647851343 -4.189467094839771 -2.5630648098444646
Li Ni Bi O 
4 3 1 8 
direct
-4.313727485369573e-18 2.704043828610222e-18 0.5 Li
0.5 1.8141845320657473e-17 0.49999999999999994 Li
-3.2069303100998487e-17 0.5000000000000002 0.5 Li
0.5 0.5 0.49999999999999994 Li
0.5 1.543780149204725e-17 -2.1252323714876055e-17 Ni
-1.095458025759611e-17 0.5 3.471037877427655e-18 Ni
0.5 0.5000000000000001 -2.1252323714876055e-17 Ni
0.0 0.0 0.0 Bi
0.2523077291074529 0.2523077291069509 0.7563304826148706 O
0.7390540591704784 0.2523077291043908 0.7563304826195367 O
0.2523077291021793 0.7390540591698527 0.7563304826250878 O
0.7355595222777569 0.735559522276022 0.7933214331670057 O
0.2644404777222432 0.26444047772397833 0.2066785668329943 O
0.7476922708978209 0.2609459408301473 0.24366951737491238 O
0.2609459408295213 0.7476922708956092 0.24366951738046297 O
0.7476922708925472 0.7476922708930489 0.24366951738512924 O
