System
1.0
5.073943638044608 -0.0572719608870404 0.5877729395662189
0.8347870396823784 5.786276624416326 0.9088451527636808
0.2631290387430664 -0.0554921536970555 13.061667939917948
H C O 
24 16 8 
direct
0.9205532736215151 0.26823044202849927 0.902384032744118 H
0.9092975343063413 0.8259081738283022 0.5233674693437694 H
0.6397547687808259 0.613123728350166 0.9402256306245791 H
0.3602452312191746 0.3868762716498333 0.059774369375421084 H
0.7219300544068759 0.9696175162354866 0.35993766105065444 H
0.27806994559312403 0.030382483764513402 0.6400623389493453 H
0.5016196379944711 0.5412447773061799 0.3153566438342768 H
0.49838036200553043 0.45875522269382024 0.684643356165723 H
0.7155854066637297 0.5440237757751437 0.4102914038220091 H
0.2844145933362704 0.4559762242248555 0.5897085961779908 H
0.35335549675448724 0.9284582100417745 0.19896140126796946 H
0.6466445032455117 0.0715417899582251 0.8010385987320233 H
0.09070246569365821 0.17409182617169747 0.4766325306562296 H
0.5638178234176917 0.8108321826072712 0.7690747035228385 H
0.4361821765823081 0.18916781739272873 0.23092529647716198 H
0.2686293438570524 0.9231997809227704 0.9275666148750172 H
0.7313706561429495 0.0768002190772296 0.07243338512498337 H
0.08345241328497792 0.9284598556774165 0.8223968101538226 H
0.07944672637848463 0.7317695579715017 0.09761596725588129 H
0.9189230806549175 0.355145534883878 0.719141399586121 H
0.0810769193450815 0.644854465116121 0.2808586004138781 H
0.038304563902421825 0.5924156870593112 0.7554353831071753 H
-0.03830456390242179 0.4075843129406879 0.24456461689282377 H
0.9165475867150227 0.0715401443225839 0.17760318984617787 H
0.32011150806877825 0.9282336797498315 0.4110195206963994 C
0.6798884919312234 0.0717663202501684 0.5889804793036 C
0.5665565234405938 0.8833152931826027 0.33568410215895883 C
0.4334434765594045 0.1166847068173973 0.6643158978410413 C
0.6644464345649939 0.626880403427251 0.33287927515318616 C
0.33555356543500725 0.3731195965727481 0.6671207248468131 C
0.5101897895411889 0.0067601062031828005 0.22638515013565666 C
0.48981021045881135 0.9932398937968179 0.7736148498643428 C
0.0907076814081576 0.40733753736422446 0.748208233630252 C
0.7649825153410941 -0.0135390199470311 0.1507073689132928 C
0.23501748465890607 0.0135390199470312 0.8492926310867076 C
0.8812895614672185 0.7316704516434382 0.1431315294799584 C
0.11871043853278172 0.2683295483565629 0.8568684705200408 C
0.711242570860856 0.6332289306569061 0.07995342931800929 C
0.2887574291391448 0.3667710693430938 0.9200465706819904 C
0.9092923185918421 0.5926624626357752 0.2517917663697488 C
0.8253198443805837 0.2216172064578474 0.5506352439282228 O
0.46775992011098366 0.48514330698217173 0.8803880918648116 O
0.5322400798890167 0.5148566930178302 0.11961190813518709 O
0.23947537088383697 0.3099552374774136 0.022523365364705204 O
0.760524629116163 0.6900447625225872 0.9774766346352957 O
0.733067833251125 0.854127953429469 0.5710209110390192 O
0.26693216674887593 0.1458720465705307 0.42897908896098014 O
0.17468015561941655 0.7783827935421536 0.4493647560717774 O
