System
1.0
-2.365411283485725 2.365411231632532 3.8172723169722835
2.365411283485725 -2.365411231632532 3.8172723169722835
2.365411231632532 2.365411283485725 -3.8172723169722835
Co P O 
1 1 4 
direct
0.24999971114085887 0.749999765541304 0.500000054400445 Co
0.0 0.0 0.0 P
0.2749607870971453 0.3318409687635198 0.3799755515689726 O
0.6681591400373781 0.04813458280545316 -0.056880072865477145 O
0.9518648938916172 0.8949847122252361 0.6200245572319177 O
0.1050141323680073 0.7250386895999249 0.056880181666374145 O
