System
1.0
1.922505400841538 -3.329877688817246 0.0
1.922505400841538 3.329877688817246 -0.0
0.0 -1e-16 19.25229814361275
Sr Hg O 
3 3 6 
direct
0.3289358037142475 -5.9975125299102105e-15 0.1666669999999968 Sr
-5.9975125299102105e-15 0.3289358037142475 0.8333330000000032 Sr
0.6710641962857585 0.6710641962857585 0.5 Sr
0.6644805004218391 0.6644805004218391 0.0 Hg
1.5603631790931334e-14 0.3355194995781449 0.3333330000000032 Hg
0.3355194995781449 1.5603631790931334e-14 0.6666669999999968 Hg
0.6667637363544259 0.6621675087248047 0.8964268179021765 O
0.3378324912752305 0.0045962276296067734 0.5630928179021758 O
0.9954037723703362 0.33323626364559544 0.2297598179021729 O
0.004596227629606801 0.3378324912752305 0.43690718209782364 O
0.6621675087248047 0.6667637363544259 0.10357318209782318 O
0.3332362636455955 0.9954037723703361 0.7702401820978274 O
