System
1.0
3.0709726109924733 0.0 0.0
-0.0 3.0709726109924733 0.0
0.0 0.0 5.416834468628429
Pd O 
2 2 
direct
0.49999999999999994 0.0 0.5 Pd
0.0 0.49999999999999994 0.0 Pd
0.0 0.0 0.75 O
0.0 0.0 0.25 O
