System
1.0
3.078566927286549 0.0224409136793312 0.1916832876079425
0.5620815170984523 4.815946199283224 -1.3744018465000714
0.0260258493752874 0.005263622227644 5.0471220157592604
Li Mn O 
2 2 4 
direct
0.9999990000000024 0.4999990000000025 0.5 Li
0.49999900000000247 0.9999990000000025 0.5 Li
0.49999999999999994 0.5000020000000021 4.547830831862758e-18 Mn
2.9999999995e-06 9.999999975e-07 9.999999975e-07 Mn
0.5313366347018624 0.2555324835697119 0.2350892780590048 O
0.031335634701857594 0.7555314835697148 0.2350922780590043 O
0.46866336529813785 0.7444665164302903 0.7649097219409905 O
0.9686633652981373 0.2444675164302879 0.764906721940991 O
