System
1.0
5.864160850764979 -8.467116e-10 3.3856755890847112
1.9547206157531625 5.52878374479253 3.3856755890847112
-1.2834025e-09 -9.075025e-10 6.771349182613599
Ti Al O 
4 4 14 
direct
1.1205091478085573e-17 0.49999999999999994 9.224705197590745e-18 Ti
0.5 0.0 9.224705197590745e-18 Ti
0.0 0.0 0.5 Ti
0.0 0.0 0.0 Ti
0.5 0.0 0.49999999999999994 Al
1.1205091478085573e-17 0.49999999999999994 0.49999999999999994 Al
0.5000000000000001 0.49999999999999994 1.844941039518149e-17 Al
0.5000000000000001 0.49999999999999994 0.5 Al
0.6518373376597629 0.098162662340341 0.09816266234021465 O
0.0981626623403355 0.098162662340334 0.6518373376597698 O
0.6518373376596647 0.651837337659666 0.0981626623402302 O
0.901837337659763 0.3481626623403408 0.34816266234021476 O
0.3481626623403417 0.9018373376597637 0.348162662340214 O
0.34816266234033566 0.34816266234033383 0.9018373376597698 O
0.3481626623402372 0.9018373376596589 0.9018373376597852 O
0.9018373376596581 0.3481626623402365 0.9018373376597862 O
0.0981626623402372 0.651837337659659 0.6518373376597852 O
0.6518373376596582 0.09816266234023639 0.6518373376597861 O
0.375 0.37499999999999994 0.37500000000000006 O
0.625 0.625 0.625 O
0.9018373376596647 0.901837337659666 0.3481626623402302 O
0.09816266234034181 0.6518373376597636 0.09816266234021398 O
