System
1.0
-5.507075514543139 5.507075514543139 0.0
5.507075514543139 0.0 5.507075514543139
5.507075514543139 5.507075514543139 0.0
Ce Sm O 
4 4 14 
direct
0.12499999999999999 0.25 0.125 Ce
0.625 0.7499999999999999 0.12500000000000006 Ce
0.12499999999999989 0.7499999999999999 0.12500000000000006 Ce
0.125 0.25 0.6249999999999999 Ce
0.6250000000000001 0.25 0.125 Sm
0.625 0.25 0.625 Sm
0.625 0.7499999999999999 0.625 Sm
0.12499999999999989 0.7499999999999999 0.625 Sm
0.2249132446029303 0.0 0.7750867553970696 O
0.7499999999999998 0.5 0.75 O
0.4749132446029303 0.5 0.4749132446029303 O
0.4749132446029302 0.9498264892058677 0.02508675539706971 O
0.025086755397069692 0.5 0.025086755397069678 O
0.02508675539706973 0.0501735107941322 0.4749132446029302 O
0.2249132446029303 0.0 0.2249132446029303 O
0.5 0.0 0.5 O
0.7750867553970696 0.5501735107941322 0.2249132446029303 O
0.02508675539706972 0.5 0.4749132446029303 O
0.7750867553970696 0.0 0.7750867553970697 O
0.7750867553970696 0.0 0.2249132446029303 O
0.4749132446029303 0.5 0.025086755397069678 O
0.22491324460293022 0.44982648920586776 0.7750867553970696 O
