System
1.0
4.004666791866595 0.0 -0.0
0.0 4.004666791866595 0.0
-0.0 0.0 4.004666791866595
H Br N 
4 1 1 
direct
0.1506370394721145 0.1506370394721145 0.8493629605278855 H
0.1506370394721145 0.8493629605278855 0.1506370394721145 H
0.8493629605278855 0.1506370394721145 0.1506370394721145 H
0.8493629605278855 0.8493629605278855 0.8493629605278855 H
0.5 0.5 0.5 Br
0.0 0.0 0.0 N
