System
1.0
7.308607193396467 0.0 -0.9463262309209077
0.0 12.148111821618231 0.0
-0.0031087277266213 0.0 12.377627944457348
Fe Te S N Cl 
4 4 8 8 20 
direct
0.7275003651587719 0.8570044252243022 0.4616054092350796 Fe
0.27249963484122813 0.35700442522430187 0.03839459076492059 Fe
0.27249963484122813 0.1429955747756984 0.538394590764921 Fe
0.7275003651587719 0.6429955747756978 0.961605409235079 Fe
0.13503438147982058 0.9397382458669348 0.2610767333222701 Te
0.8649656185201788 0.43973824586693383 0.2389232666777297 Te
0.8649656185201788 0.060261754133065795 0.7389232666777303 Te
0.13503438147982058 0.5602617541330651 0.7610767333222698 Te
0.37883764176527474 0.0187118909270731 0.1581746056215882 S
0.7059452438879884 0.19673045763040997 0.9147999707157053 S
0.7059452438879883 0.30326954236959025 0.4147999707157056 S
0.6211623582347249 0.5187118909270729 0.3418253943784119 S
0.29405475611201093 0.6967304576304097 0.5852000292842947 S
0.37883764176527474 0.48128810907292646 0.6581746056215881 S
0.6211623582347249 0.981288109072927 0.8418253943784119 S
0.29405475611201093 0.80326954236959 0.0852000292842948 S
0.5966770003341626 0.08598458875804549 0.9205926364459387 N
0.15647806100557277 0.6943417669705754 0.6716972297115519 N
0.15647806100557274 0.8056582330294244 0.1716972297115517 N
0.8435219389944266 0.1943417669705747 0.8283027702884482 N
0.8435219389944267 0.30565823302942585 0.3283027702884483 N
0.40332299966583685 0.5859845887580456 0.5794073635540614 N
0.4033229996658369 0.9140154112419543 0.07940736355406129 N
0.5966770003341626 0.4140154112419547 0.42059263644593853 N
0.26629969589680635 0.3284683995391631 0.8611653128619792 Cl
0.8620057917123579 0.49661009007749396 0.6489601441482483 Cl
0.46735150266987857 0.7965743371221649 0.3725365153957239 Cl
0.9454323410124558 0.7625289033720568 0.396834597839524 Cl
0.733700304103194 0.8284683995391631 0.6388346871380208 Cl
0.23685942651059874 0.9683622605386585 0.5705698135657484 Cl
0.7631405734894009 0.4683622605386579 0.9294301864342516 Cl
0.9454323410124559 0.737471096627943 0.8968345978395232 Cl
0.23685942651059874 0.5316377394613413 0.0705698135657484 Cl
0.763140573489401 0.0316377394613421 0.4294301864342515 Cl
0.7337003041031941 0.6715316004608369 0.1388346871380277 Cl
0.13799420828764136 0.5033899099225058 0.35103985585175285 Cl
0.8620057917123579 0.0033899099225059995 0.1489601441482475 Cl
0.26629969589680635 0.17153160046083676 0.3611653128619721 Cl
0.054567658987543295 0.26252890337205737 0.1031654021604761 Cl
0.054567658987543295 0.2374710966279427 0.6031654021604769 Cl
0.13799420828764136 0.996610090077494 0.8510398558517517 Cl
0.5326484973301214 0.20342566287783467 0.627463484604276 Cl
0.4673515026698786 0.7034256628778351 0.8725365153957241 Cl
0.5326484973301214 0.296574337122165 0.1274634846042765 Cl
