System
1.0
5.100858148640687 -0.0 3e-16
8e-16 5.100858148640687 3e-16
0.0 0.0 5.100858148640687
La Sn N 
3 1 1 
direct
0.5 0.0 0.0 La
0.0 0.5 0.0 La
0.0 0.0 0.5 La
0.5 0.5 0.5 Sn
0.0 0.0 0.0 N
