System
1.0
4.038704799943972 0.0 0.0
0.0 4.038704799943972 -0.0
0.0 -0.0 5.7108643888506165
K N 
2 2 
direct
0.0 0.5 0.24998959880849247 K
0.5 0.0 0.7500104011915075 K
0.0 0.5 0.7499688733155335 N
0.5 0.0 0.250031126684466 N
