System
1.0
2.853495848032415 -0.009454643443045 -1.4458267798918378
-1.785743257319762 2.6556663266722147 -1.846073637e-07
-0.0057562428788985 -0.0038706578119233 7.058687977031481
Co Cu N 
2 1 2 
direct
0.8476949621341117 0.42384698106693197 0.1359809328075587 Co
0.15230503786588823 0.5761530189330678 0.864019067192441 Co
3.4712578757805267e-19 1.2009745527726596e-20 0.5 Cu
0.4126920820557175 0.20634604102841606 0.8094067468497809 N
0.5873079179442824 0.7936539589715843 0.1905932531502191 N
