System
1.0
6.23162856328379 -0.003978188166152 4e-16
9.834747335125812 5.080384807291935 7e-16
-0.0 -0.0 12.632524904109657
V Pb N 
4 8 12 
direct
4.7735614451970656e-14 0.2540608399431633 0.8375291130285638 V
-4.7854198607355125e-14 0.7459391600568367 0.1624708869714364 V
-4.7732704931602744e-14 0.2459391600568367 0.3375291130285638 V
4.7862927168458855e-14 0.7540608399431633 0.6624708869714361 V
1.0272866712774415e-13 0.3648005800740395 0.0755423500109789 Pb
1.0270481486079651e-13 0.8648005800740396 0.4244576499890211 Pb
-1.0271337050201854e-13 0.1351994199259604 0.5755423500109785 Pb
-1.0283387038947084e-13 0.6351994199259605 0.9244576499890214 Pb
-1.7087425281343638e-14 0.0620270071455156 0.130508309149091 Pb
-1.708686719609009e-14 0.5620270071455157 0.369491690850909 Pb
1.7180921905173205e-14 0.43797299285448477 0.630508309149091 Pb
1.7317640362118853e-14 0.9379729928544843 0.869491690850909 Pb
0.49999999999982775 0.5199449429520562 0.25 N
4.0874607050663865e-13 0.1488748170482504 0.9499023139698132 N
-4.0866864412738524e-13 0.8511251829517492 0.0500976860301865 N
-4.0863684155403693e-13 0.3511251829517498 0.4499023139698137 N
4.0867737268848894e-13 0.6488748170482508 0.5500976860301868 N
-7.792455382109183e-13 0.407903175290516 0.8849355556905208 N
7.792206203111383e-13 0.5920968247094838 0.1150644443094786 N
7.791986332385838e-13 0.0920968247094839 0.3849355556905216 N
-7.791851299627189e-13 0.9079031752905161 0.6150644443094792 N
0.5000000000001723 0.4800550570479434 0.75 N
0.49999999999982775 0.01994494295205636 0.25 N
0.5000000000001724 0.9800550570479437 0.75 N
