System
1.0
6.842251933678424 -0.016614473780291 0.5642736080547844
0.5182906491777811 6.822612841567272 0.5642736007701252
-0.0179681272147216 -0.0166144821560956 6.865456069456213
N 
16 
direct
0.06435198546603979 0.5420753361466191 0.2194748707770404 N
0.45792466384309527 0.7805251292203091 0.9356480145337862 N
0.21947487077442807 0.06435198546104072 0.5420753361521147 N
0.45668679228922743 0.4566867922946977 0.4566867922903211 N
0.04207533615362699 0.5643519854594817 0.7194748707776963 N
0.28052512922592404 0.9579246638515196 0.4356480145358569 N
0.7805251292255723 0.9356480145389602 0.45792466384788577 N
0.5433132077107727 0.543313207705302 0.5433132077096798 N
0.957924663846373 0.43564801454051877 0.2805251292223045 N
0.043313207710772794 0.043313207705302004 0.043313207709679 N
0.9356480145339597 0.4579246638533811 0.7805251292229587 N
0.9566867922892272 0.9566867922946981 0.95668679229032 N
0.5420753361569045 0.21947487077969124 0.0643519854662138 N
0.43564801453033025 0.2805251292206119 0.9579246638464698 N
0.7194748707740749 0.042075336148480705 0.5643519854641437 N
0.564351985469669 0.7194748707793892 0.04207533615353011 N
