System
1.0
4.5685892934712315 -0.114973943111805 1.8712110046379116
-0.1937678972136116 5.2305322446609255 1.8923826943961142
0.1300745650296153 0.0738427851134175 7.79566434123968
H C S N 
10 6 2 2 
direct
0.3184509662121893 0.9042518892361212 0.8628005710927052 H
0.035247695810336606 0.3762084453138116 0.8403123860161736 H
0.46326187035206584 0.6050185384948225 0.11279922166940161 H
0.4809405707535284 0.744828506370446 0.4582654914490361 H
0.620800376851445 0.9484422009699985 0.20837903146313944 H
0.0352501110301673 0.8762116626943373 0.3403133316174771 H
0.463260103922053 0.1050160862161707 0.6127983049392661 H
0.4809370811330286 0.2448242839755032 0.9582656084705831 H
0.62079786091512 0.4484382966567834 0.7083784254484706 H
0.3184523824697457 0.4042559923972373 0.36280119292575697 H
0.5761082068138945 0.24418283870242977 0.8042944809254333 C
0.3619418894575197 0.10722365562550332 0.7655908014047442 C
0.5761112269955305 0.7441863976818216 0.3042944567792138 C
0.36194346919731063 0.607227773587955 0.2655912186772356 C
0.8668142992456904 0.6162595407608153 0.26864527662703386 C
0.866812759317872 0.11625523521540061 0.7686455417121122 C
0.9233645053880268 0.3536748448685365 0.20304218375328037 S
0.9233621953844677 0.8536699111452981 0.7030426984183618 S
0.07787644395492149 0.22181376808742786 0.7929440667845784 N
0.07787998479508479 0.7218171319995884 0.29294370982599116 N
