System
1.0
4.3765114467872435 0.0 0.0
-2.1882557233936217 8.057338717754671 0.0
0.0 -0.0 9.700226087988847
K Hg C I N 
2 2 4 2 4 
direct
0.7641263696299593 0.5282537392599095 0.75 K
0.23587363037004058 0.4717462607400907 0.25 K
0.0 0.0 0.0 Hg
0.0 0.0 0.5 Hg
0.8772618093730827 0.7545256187461681 0.05703755029739199 C
0.12273819062691708 0.24547438125383209 0.9429624497026083 C
0.12273819062691708 0.24547438125383209 0.5570375502973915 C
0.8772618093730827 0.7545256187461681 0.44296244970260795 C
0.5539262876704408 0.1078515753408772 0.25 I
0.44607371232955884 0.8921484246591225 0.75 I
0.8072312982335207 0.6144625964670334 0.0873639833494976 N
0.1927687017664797 0.3855374035329665 0.5873639833494974 N
0.8072312982335207 0.6144625964670334 0.4126360166505024 N
0.1927687017664797 0.3855374035329665 0.9126360166505026 N
