System
1.0
3.98613889534317 -1.378517e-09 1.6020060928425108
1.35690371603891 4.722625411994231 2.3839221678548075
-0.1797443049046586 0.1030426784398656 6.207436104599944
Mg Fe N 
4 2 4 
direct
0.6764781875435102 0.240668689555226 0.40637593535755867 Mg
0.32352181245648975 0.7593313104447741 0.5936240646424411 Mg
0.02848816310301573 0.6933584424421547 0.24966423135119167 Mg
0.9715118368969844 0.3066415575578452 0.7503357686488087 Mg
0.36861155423791825 0.1387683505281407 0.12400854099627391 Fe
0.6313884457620818 0.8612316494718593 0.8759914590037264 Fe
0.18040578181453007 0.24544071087133873 0.3937487254999162 N
0.81959421818547 0.7545592891286613 0.6062512745000834 N
0.4770256752828884 0.2600444751334007 0.785904174300782 N
0.522974324717111 0.7399555248665995 0.21409582569921826 N
