System
1.0
3.8146232420075994 -1.3285059e-09 -3.527838724260754
-3.814622733586105 3.814623374214751 5.10668014e-08
1.2366489e-09 1.0921312e-09 7.055676574556157
Y Al N 
2 2 4 
direct
-9.829596543191149e-17 0.49999999999999994 0.75 Y
0.0 0.0 0.49999999999999994 Y
-9.829596543191149e-17 0.49999999999999994 0.25 Al
0.0 0.0 0.0 Al
0.5000000000001036 0.05867846310742039 0.1250000000000475 N
0.4999999999998961 0.9413215368925795 0.6249999999999523 N
0.3826440737844544 0.4413215368921766 0.31632153689216036 N
0.6173559262155451 0.5586784631078233 0.9336784631078394 N
