System
1.0
4.810760493863131 0.0 0.0
0.0 7.8681690074467605 0.0
0.0 0.0 11.280392645794494
Ce Si N 
4 12 20 
direct
0.5045527153861251 0.0587853434929448 0.1705146681784213 Ce
0.9954472846138748 0.9412146565070547 0.6705146681784215 Ce
0.0045527153861259 0.4412146565070552 0.8294853318215785 Ce
0.4954472846138741 0.5587853434929453 0.3294853318215786 Ce
0.015196820674713998 0.3378563077704106 0.1612489162693916 Si
0.5151968206747136 0.1621436922295893 0.8387510837306086 Si
0.9848031793252863 0.8378563077704112 0.3387510837306086 Si
0.4848031793252859 0.6621436922295888 0.6612489162693914 Si
0.0153589134408489 0.2070807318412231 0.4167681977689208 Si
0.9846410865591512 0.707080731841223 0.083231802231079 Si
0.4846410865591511 0.7929192681587769 0.916768197768921 Si
0.5241669775872041 0.4668170391384769 0.0408795836309377 Si
0.0241669775872044 0.0331829608615231 0.9591204163690625 Si
0.4758330224127957 0.966817039138477 0.45912041636906215 Si
0.9758330224127959 0.533182960861523 0.5408795836309375 Si
0.5153589134408488 0.2929192681587768 0.5832318022310788 Si
0.8143187531566036 0.0185446570432821 0.4062155415041814 N
0.3143187531566035 0.4814553429567179 0.5937844584958188 N
0.3314238640040496 0.7061209870606651 0.7952687656458244 N
0.671201104179447 0.3891395542381163 0.16831247258179688 N
0.8314238640040426 0.7938790129393348 0.204731234354175 N
0.6685761359959573 0.206120987060665 0.7047312343541755 N
0.1685761359959506 0.293879012939335 0.2952687656458252 N
0.45342357704061786 0.8427692072162285 0.5803527746974989 N
0.9534235770406179 0.6572307927837714 0.4196472253025015 N
0.5465764229593821 0.34276920721622817 0.9196472253025011 N
0.1856812468433965 0.5185446570432823 0.0937844584958188 N
0.0465764229593822 0.15723079278377167 0.0803527746974986 N
0.7056905400508818 0.6492971606344671 0.9890852758541184 N
0.7943094599491182 0.3507028393655332 0.4890852758541181 N
0.2943094599491184 0.149297160634467 0.5109147241458816 N
0.828798895820553 0.6108604457618838 0.6683124725817967 N
0.3287988958205526 0.8891395542381162 0.33168752741820307 N
0.1712011041794474 0.11086044576188378 0.8316875274182033 N
0.2056905400508816 0.8507028393655329 0.0109147241458818 N
0.6856812468433964 0.9814553429567175 0.9062155415041812 N
