System
1.0
0.0 0.0 -3.4178663937395943
-3.510811468506257 -3.3069411275967084 0.0
-3.510811468506257 3.3069411275967084 0.0
Fe N Cl 
1 2 2 
direct
0.0 0.5000000000000001 0.4999999999999999 Fe
0.0 0.7434484861333138 0.7434484861333136 N
0.0 0.25655151386668584 0.25655151386668573 N
0.5 0.7391832423450382 0.2608167576549608 Cl
0.5 0.26081675765496104 0.7391832423450381 Cl
