System
1.0
5.110134746420037 2.6767375e-09 -1.443841138928867
-0.55488074944665 7.181799310162426 -1.9638689187472105
-0.0252173707806032 0.0654418804142683 9.675723971710452
Sr Mn Fe N 
8 2 1 8 
direct
0.4012978427087672 0.0390317782601293 0.8025966854167647 Sr
0.33400884938721864 0.5286913497280016 0.6680186987747774 Sr
0.9733403963638156 0.7363681872569229 0.9466797927283837 Sr
0.20043143453791706 0.8035930466913489 0.400862869076016 Sr
0.7995685654620823 0.19640695330865088 0.5991371309239848 Sr
0.026659603636183995 0.2636318127430771 0.05332020727161629 Sr
0.6659911506127809 0.47130865027199825 0.3319813012252231 Sr
0.5987021572912324 0.9609682217398707 0.19740331458323548 Sr
0.18644423154289033 0.20481280089127574 0.3728884630854155 Mn
0.8135557684571098 0.7951871991087234 0.6271115369145845 Mn
0.49999999999999994 0.4999999999999999 7.281736445643593e-18 Fe
0.7242162443792527 0.8313540681736133 0.44843248875836755 N
0.2757837556207466 0.1686459318263863 0.5515675112416324 N
0.8229900554567474 0.571202050866995 0.6459801109136198 N
0.10588751971909717 0.012931115589398598 0.2117750394378436 N
0.894112480280903 0.9870688844106013 0.7882249605621565 N
0.1770099445432531 0.4287979491330046 0.3540198890863798 N
0.47625591506361864 0.7113485778454202 0.9525118301271759 N
0.5237440849363815 0.2886514221545798 0.047488169872823886 N
