System
1.0
2.9274568633597484 -0.0328637923311691 -0.0860994146657017
-1.649206114674496 -4.314188335793116 -0.1963023961560214
0.2785567368721026 -1.8381909840679442 -5.651020313258071
Ge N 
3 1 
direct
0.14119028638307818 0.2143219121985562 0.862161330002074 Ge
0.4883247752778841 0.8064183648218463 0.5504431677467221 Ge
0.4110244754213639 0.521906835682543 0.23925807187439344 Ge
0.14597820390235713 0.09507494046081105 0.5501882563241648 N
