System
1.0
3.3551438597219665 -5.8112794517554756 0.0
3.3551438597219665 5.8112794517554756 -0.0
-0.0 0.0 7.656022987781266
K Mn Ag C N 
1 1 3 6 6 
direct
0.6666669999999968 0.3333330000000032 0.0 K
0.0 0.0 0.0 Mn
0.011761458018249628 0.5058817290089848 0.49999999999999994 Ag
0.4941182709910149 0.9882385419817502 0.49999999999999994 Ag
0.4941182709907334 0.5058817290092664 0.49999999999999994 Ag
0.65942421131642 0.9906637472659793 0.7241534482416205 C
0.3312405359496753 0.34057578868366456 0.7241534482416205 C
0.009336252734020785 0.3405757886835803 0.27584655175837963 C
0.6594242113163353 0.6687594640503249 0.27584655175837963 C
0.009336252733909485 0.6687594640503514 0.7241534482416205 C
0.3312405359496482 0.9906637472660904 0.27584655175837963 C
0.22514209733713628 0.9954164814911082 0.1559045380150196 N
0.0045835185090365915 0.2297246158461459 0.1559045380150196 N
0.7702753841538539 0.9954164814909636 0.8440954619849805 N
0.004583518508891581 0.7748579026628638 0.8440954619849805 N
0.7702753841538245 0.7748579026627483 0.1559045380150196 N
0.22514209733725202 0.2297246158461754 0.8440954619849805 N
