System
1.0
3.7616554280777046 -0.0 0.0
0.0 3.7616554280777046 0.0
0.0 -0.0 3.7616554280777046
Fe N 
4 1 
direct
0.0 0.5 0.5 Fe
0.5 0.5 0.0 Fe
0.5 0.0 0.5 Fe
0.0 0.0 0.0 Fe
0.5 0.5 0.5 N
