System
1.0
-4.715870833758508 -4.715870833758508 0.0
-4.715870833758508 -0.0 -4.715870833758508
-0.0 -4.715870833758508 -4.715870833758508
Se N Cl 
1 2 6 
direct
0.0 0.0 0.0 Se
0.25 0.25 0.25 N
0.75 0.75 0.7500000000000001 N
0.751167484244585 0.24883251575541523 0.24883251575541518 Cl
0.7511674842445849 0.2488325157554153 0.7511674842445849 Cl
0.7511674842445849 0.7511674842445849 0.2488325157554153 Cl
0.2488325157554153 0.7511674842445849 0.7511674842445849 Cl
0.24883251575541523 0.751167484244585 0.24883251575541518 Cl
0.24883251575541523 0.24883251575541518 0.751167484244585 Cl
