System
1.0
3.25491470331929 0.4567437875773232 0.0
0.8973188766016882 5.347886488539091 0.0
0.0 0.0 3.4588539026789467
In N F 
1 1 1 
direct
0.41384985558768067 0.06352324711890782 0.0 In
-0.214963551512406 0.3226948600156165 0.0 N
0.05458092062146721 -0.2190704147460778 0.0 F
