System
1.0
3.5103048901627494 0.5209276032608318 0.4298941334130477
1.2836732640019806 3.3097076362317965 0.4350551782133459
2.16600314666471 1.739540157382338 5.501096142025467
Na N 
1 3 
direct
0.0015392692351548995 -0.009736035286079098 -0.0014896780856635003 Na
0.001524769377284276 -0.009704928551835421 0.4984836724266167 N
0.817309306073626 0.8082127198396116 0.7219904547114088 N
0.18575065531393345 0.1723662439983011 0.2749755509476327 N
