System
1.0
5.810566948603739 -0.0 0.0
-0.0 5.810566948603739 -0.0
-0.0 0.0 5.810566948603739
Ca Bi N 
3 1 1 
direct
0.0 0.5 0.5 Ca
0.5 0.0 0.5 Ca
0.5 0.5 0.0 Ca
0.5 0.5 0.5 Bi
0.0 0.0 0.0 N
