System
1.0
3.285695262855696 0.0116707008708713 -0.4207729370092226
-0.0084505658393153 4.003879141912661 0.0466877950583537
-0.8969745891925671 -0.0695550265811765 5.804584853493267
Sb N 
2 2 
direct
0.7346941673264095 0.785094600003364 0.9665981910490768 Sb
0.020675866279944763 0.2850962777090714 0.5307444251127021 Sb
0.5623441763982521 0.9781189572258162 0.6156701620167283 N
0.19298978999539124 0.4781081650617416 0.881687221821494 N
