System
1.0
3.9263925872655423 -0.1018899035334529 0.9875339761062303
-0.1819868997157453 5.81819688417716 -1.1273545665685414
0.3209114368010543 0.1448455344925 12.361982789286552
H C N 
16 14 4 
direct
0.5092605850049088 0.38028692709719597 0.09765511772333081 H
0.14634019044250704 0.6250366148728864 0.7246008674454819 H
0.14634088457932934 0.12503626421004183 0.22460098641472312 H
0.6181754381959376 0.3233237361433933 0.31554744377115895 H
0.6181742636305558 0.8233239365090421 0.8155475638049302 H
0.2878258622065365 0.5655184180353501 0.9445856039872645 H
-0.002949658902080001 0.008680430012626295 0.6262343524347544 H
-0.0029488824956540017 0.5086805235795969 0.1262344504896223 H
0.2878262537729921 0.0655187166287143 0.4445857530978748 H
0.8328094833940158 0.4339349719994204 0.9166896317946609 H
0.29875933401169413 0.8033223035161405 0.2806998154328207 H
0.29875859243920483 0.3033225486063942 0.7806998684592235 H
0.1259854543850739 0.5198322169575735 0.288675583048314 H
0.1259850529775375 0.0198332458888245 0.7886755257740733 H
0.5092602313974994 0.8802871841598849 0.5976549808042796 H
0.8328099437013576 0.9339348210394349 0.41668965101194166 H
0.18644618137724348 0.8248557078969975 0.09415904211476461 C
0.2503728921525817 0.557494667465917 0.6349954630552821 C
0.2503734552562895 0.057494589975731106 0.1349953994668188 C
0.45266422140370643 0.702323684580531 0.5630526992394372 C
0.4526646323622421 0.202323543468635 0.0630526602056131 C
0.18644713315609562 0.3248567016653489 0.5941585297486356 C
0.5916081987935017 0.6236626701049928 0.4468037957151982 C
0.06704845787314839 0.1906735371948842 0.7789012634643876 C
0.3242789584373382 0.24668470556682162 0.4781637022691099 C
0.324278903361405 0.7466847454983472 0.9781634015405437 C
0.5187987302750922 0.3925180993801591 0.4051790154979039 C
0.5187986563862511 0.8925182339882166 0.9051787621732587 C
0.06704735331086939 0.6906748170041525 0.2789017891243171 C
0.5916086008358625 0.123663067107212 0.9468035780238575 C
0.9967275205491506 0.6739218060269936 0.16702221403291886 N
0.7903378102413702 0.2732055443461398 0.8760656099941976 N
0.7903399481585239 0.7732055500090138 0.37606504134057583 N
0.9967263173279204 0.1739224694633645 0.6670228374987647 N
