System
1.0
3.022204447681654 0.0013180408870672 -5.1905122015e-06
-1.50996019718911 2.619827203709669 1.2378910996e-05
-1.65749913988e-05 3.62138311119e-05 10.087223760356604
Na Mn N 
2 2 2 
direct
0.666853981385361 0.33381206406685143 0.7578992805879025 Na
0.33314686960724843 0.6662074828181845 0.2578993586544874 Na
0.9999978506663096 0.0003899271254969002 0.5138638793542988 Mn
9.820821496999783e-07 -0.00037156271622330005 0.013868876272041798 Mn
0.3334277510880654 0.6665333093056326 0.5728769169162673 N
0.6665725651708662 0.33349207606672526 0.07287168821499859 N
