System
1.0
3.146448613326291 0.0 0.0
1.5732243066631455 3.9243593553364846 3.193905993359613
1.5732243066631455 -3.9243593553364846 3.193905993359613
Mo N 
2 2 
direct
0.7500000000000001 0.13479043163786097 0.36520956836213897 Mo
0.25000000000000017 0.8652095683621387 0.6347904316378611 Mo
0.5 0.49999999999999994 0.5 N
0.0 0.0 0.0 N
