System
1.0
-4.1808047241078095 4.1808047241078095 4.1808047241078095
-4.1808047241078095 -4.1808047241078095 -4.1808047241078095
4.1808047241078095 -4.1808047241078095 4.1808047241078095
Cu H N Cl 
4 12 4 4 
direct
2.783964931096747e-18 0.243549602442125 2.783964931096747e-18 Cu
0.5 0.5 0.243549602442125 Cu
0.7564503975578749 0.256450397557875 0.2564503975578751 Cu
0.7435496024421251 3.9842634556149474e-18 0.5 Cu
0.13490356932600575 0.96947125499668 0.9886542725119419 H
0.6462492968140565 0.5113457274880582 0.9808169824847317 H
0.4886542725119421 0.6349035693260059 0.96947125499668 H
0.8537507031859437 0.8345686856706722 0.8650964306739942 H
0.019183017515268904 0.5305287450033203 0.665431314329328 H
0.3650964306739943 0.3537507031859433 0.8345686856706721 H
0.16543131432932784 0.5191830175152684 0.5305287450033201 H
0.030528745003319827 0.6654313143293279 0.5191830175152684 H
0.480816982484731 0.1462492968140566 0.5113457274880582 H
0.3345686856706721 0.8650964306739942 0.3537507031859433 H
0.011345727488058208 0.9808169824847317 0.1462492968140566 H
0.4694712549966803 0.988654272511942 0.634903569326006 H
0.5 0.5 0.9803599876040594 N
2.4014623098798257e-17 0.9803599876040594 2.4014623098798257e-17 N
0.4803599876040597 -6.604830148633269e-19 0.5000000000000001 N
0.019640012395940383 0.5196400123959407 0.5196400123959407 N
0.5 0.5 0.5366893068309417 Cl
-2.072622726696304e-17 0.5366893068309417 -2.072622726696304e-17 Cl
0.03668930683094217 -1.1775713764005694e-17 0.5 Cl
0.4633106931690576 0.9633106931690584 0.9633106931690584 Cl
