System
1.0
4.625050935437617 -9.7138276e-09 -1.8710270434727918
-0.756908399939243 4.562695517205481 -1.8710279846847966
0.0356994099703308 0.0421096026439365 6.740163742963522
Na Li H N 
1 3 8 4 
direct
0.25000000000000006 0.7500000000000001 0.5000000000000001 Na
0.0 0.0 0.0 Li
0.012103891163876801 0.5121038911638875 0.024208782327797915 Li
0.4878961088361229 0.9878961088361125 0.9757912176722018 Li
0.5389192800716242 0.43596820347417087 0.224306045971873 H
0.21166215748301556 0.46108071991891697 0.7756939540338753 H
0.5640317965496283 0.31461323411482445 0.7756939540364985 H
0.6853867658957324 0.7883378424920872 0.2243060459577546 H
0.413262257858807 0.26320456558571204 0.33925998838002724 H
0.923944577209818 0.5867377421156305 0.6607400116093536 H
0.736795434397018 0.07400226949548279 0.660740011624151 H
0.9259977305343642 0.07605542280316689 0.339259988386468 H
0.3460245868073532 0.3338417780542846 0.20496343382520293 N
0.12887834422008654 0.6539754131853129 0.7950365661740982 N
0.666158221951144 0.1410611529880589 0.7950365661783003 N
0.8589388470214224 0.8711216557723367 0.20496343382239898 N
