System
1.0
5.900983127672427 0.0353297319230873 0.1707449003443171
2.2175561588688124 5.46857399027311 0.1707449038037325
-0.0407959664547013 -0.0276569201696092 8.137770336637885
Pb C S N 
2 4 4 4 
direct
0.9031475459697125 0.0968524540288011 0.2500000000006107 Pb
0.09685245403028786 0.9031475459711984 0.7499999999993885 Pb
0.7528851787782441 0.4877023893635322 0.6018230947504802 C
0.24711482122175554 0.51229661063647 0.3981769052495194 C
0.487702389360335 0.7528851787777283 0.1018230947504232 C
0.5122966106396671 0.24711482122227169 0.8981769052495765 C
0.6459078155196774 0.767685614794622 0.6657062278499878 S
0.7676856147928375 0.6459078155190302 0.16570622784908348 S
0.2323143852071621 0.3540921844809699 0.8342937721509164 S
0.35409218448032276 0.23231438520537784 0.3342937721500122 S
0.28177964399540606 0.8348254137809612 0.056186675984611294 N
0.7182203560045933 0.16517458621903883 0.9438133240153886 N
0.8348254137822699 0.2817796439911268 0.5561866759831372 N
0.16517458621772993 0.7182203560088738 0.4438133240168625 N
