System
1.0
4.105987391358961 5.4438e-10 1.650171474320617
1.3910258516048621 4.617789911888035 2.4722050433104177
-0.1289878494139158 0.1741042685428533 6.254331327152251
Mg Cr N 
4 2 4 
direct
0.6747580578884841 0.2585540740565951 0.39193081016466186 Mg
0.3252419421115158 0.7414459259434051 0.6080691898353379 Mg
0.021038593432426877 0.7144824976161348 0.24343931551442738 Mg
0.9789614065675731 0.2855175023838652 0.7565606844855722 Mg
0.36108873010380177 0.15116120145969134 0.12666133833178078 Cr
0.6389112698961982 0.8488387985403087 0.8733386616682187 Cr
0.17891786736445 0.25096787735282444 0.39119838791860045 N
0.8210821326355497 0.7490321226471753 0.6088016120813996 N
0.48703979969847816 0.2495622121834828 0.7763581884197155 N
0.512960200301522 0.7504377878165169 0.22364181158028437 N
