System
1.0
3.006375357952754 -5.207195056942303 0.0
3.006375337513993 5.207195068742626 0.0
-0.0 0.0 6.795690550354287
Mn Os C N 
2 1 6 6 
direct
0.3333330000000032 0.6666669999999967 0.5000017982383643 Mn
0.6666669999999968 0.3333330000000031 0.4999982017616356 Mn
0.0 0.0 0.0 Os
0.7391545138379987 4.026519606460698e-06 0.8133740617703181 C
0.2608454861620014 -4.02651960659479e-06 0.18662593822968152 C
0.2608495126815958 0.26084548616184455 0.8133740617703181 C
-4.026519594934258e-06 0.7391504873185486 0.8133740617703181 C
4.02651959470403e-06 0.2608495126814512 0.18662593822968152 C
0.7391504873184044 0.739154513838155 0.18662593822968152 C
0.6072555756532019 0.6072594440250255 0.3160614462427808 N
2.868371055592268e-06 0.3927444243473259 0.3160614462427808 N
0.3927444243467982 0.3927405559749743 0.6839385537572198 N
-2.868371055353052e-06 0.607255575652674 0.6839385537572198 N
0.3927405559757385 -2.868372347340671e-06 0.3160614462427808 N
0.6072594440242617 2.868372346722249e-06 0.6839385537572198 N
