System
1.0
6.133350565337683 -1.32067516e-08 1.1323150720836883
2.9922483707477845 6.348218713769125 0.9693042572720618
-0.0054037736766684 0.1241219610385418 17.206524499252904
Rb Au C S N 
4 4 8 8 8 
direct
0.19073592892858263 0.7026502838148294 0.938953755341014 Rb
0.8323399680811805 0.7973497161824499 0.5610462446594853 Rb
0.16766003191881934 0.20265028381755099 0.4389537553405147 Rb
0.8092640710714174 0.2973497161851702 0.06104624465898621 Rb
0.6651979094472792 0.2500000000014613 0.7499999999997853 Au
0.33480209055272175 0.749999999998538 0.2500000000002135 Au
0.16327508711698135 0.2500000000008438 0.749999999999829 Au
0.8367249128830188 0.7499999999991565 0.2500000000001704 Au
0.7125875374814686 0.10938100104308149 0.3561952197324419 C
0.287412462518531 0.8906189989569187 0.6438047802675589 C
0.4084620102643193 0.13328364917421007 0.9138998295901088 C
0.45564548902987634 0.36671635082614373 0.5861001704100854 C
0.17816375826155678 0.39061899895483865 0.1438047802675955 C
0.821836241738443 0.6093810010451617 0.8561952197324043 C
0.5915379897356812 0.8667163508257902 0.08610017040989051 C
0.5443545109701238 0.6332836491738574 0.41389982958991356 C
0.991059523849668 0.6098752985075014 0.7697084175984183 S
0.6597858080919075 0.16730458491140898 0.8871240857257677 S
0.6293567600468204 0.10987529850427838 0.269708417598411 S
0.37064323995318044 0.8901247014957221 0.7302915824015884 S
0.3402141919080924 0.8326954150885909 0.11287591427423238 S
0.008940476150331462 0.39012470149249856 0.2302915824015824 S
0.7142144787298164 0.3326954150899571 0.6128759142744197 S
0.2857855212701831 0.667304584910043 0.3871240857255792 S
0.709479340231957 0.6147199365724169 0.9193657315505366 N
0.7700964225394726 0.8883545603396468 0.0646220617298843 N
0.2905206597680429 0.3852800634275824 0.0806342684494642 N
0.7230730446032888 0.6116454396666836 0.43537793827000465 N
0.7564349916408715 0.1147199365725152 0.4193657315507505 N
0.24356500835912867 0.8852800634274854 0.5806342684492499 N
0.276926955396711 0.3883545603333157 0.564622061729996 N
0.229903577460527 0.11164543966035329 0.9353779382701156 N
