System
1.0
3.0354577143803785 -0.0242315617042562 -9.3649897615913
4.522877494439802 2.6219311285087357 -4.618435431e-07
-0.0516423216334498 0.0890840242603104 28.11178437172225
Mn C N 
4 6 12 
direct
0.9999734407515868 1.8223495617170458e-05 0.16598426250586704 Mn
0.9999734407570079 8.345748583866873e-06 0.665984262507506 Mn
2.6490550784726352e-05 0.9999824330766083 0.8340339150612054 Mn
2.6490545240911325e-05 0.9999910763770201 0.3340339150595231 Mn
0.9775812055467138 0.6741855477265717 0.07586488709341718 C
2.8936142854817845e-06 0.674128466490783 0.7500099692504252 C
0.022416715858044885 0.6517662680621085 0.42415241441113843 C
0.9775812055337713 0.3482332467264147 0.5758648870892843 C
0.02241671584536355 0.3258170260927336 0.9241524144070802 C
2.893602722777666e-06 0.3258686399000353 0.2500099692466295 C
0.10634830701488016 0.6372440066921533 0.40890216752382846 N
0.017900789685408536 0.3628069816480979 0.5460780401040565 N
0.8755686879693529 0.38080403285857795 0.1653061416670461 N
0.10634830698639385 0.25640769631507915 0.9089021675148458 N
0.12443033008581784 0.2563737187832172 0.3347117256824749 N
0.8936566251252146 0.7435908067056529 0.09111743086623784 N
0.8936566250953939 0.36275256817638857 0.5911174308568445 N
0.9820955338392217 0.637195808307068 0.45393905584730604 N
0.1244303300915907 0.6191959511288112 0.8347117256844505 N
0.017900789697767126 0.6192922286611191 0.04607804010817262 N
0.9820955338267137 0.3807086578589215 0.9539390558431501 N
0.8755686879766944 0.7436272691684401 0.6653061416695057 N
