System
1.0
3.5646829706099323 0.0053950385394501 0.0014851016129258
-1.786247369039159 3.0839672728380076 6.92880372e-08
-0.0068138674709689 -0.0039466231950078 8.093573436115681
Ca Mg N 
2 1 2 
direct
0.6668669376893677 0.33343296384480864 0.2792570705933796 Ca
0.33313306231063206 0.6665670361551913 0.7207429294066208 Ca
0.0 0.0 0.0 Mg
0.6667063687657733 0.3333531843827796 0.8415904438254291 N
0.3332936312342273 0.6666468156172201 0.1584095561745708 N
