System
1.0
2.7955048250522894 1.6139854633061825 2.3489897877118815
-2.7955048250522894 1.6139854633061825 2.3489897877118815
-0.0 -3.227970926514311 2.348989787711948
Y W N 
1 1 3 
direct
0.9762290852360694 0.9762290852360694 0.9762290852360732 Y
0.446469142994018 0.44646914299401796 0.44646914299401785 W
0.3944688984808109 0.913348853786543 0.39446880357985553 N
0.913348853786543 0.3944688984808109 0.39446880357985553 N
0.3944688035697254 0.3944688035697254 0.9133489487077546 N
