System
1.0
3.9382059793133517 6.409480452e-06 2e-16
-1.969097435182091 3.410863960113757 2e-16
-0.0 -0.0 3.6943507244125176
Cd Cu N 
1 1 1 
direct
-1.5405229021999997e-06 1.88830804993e-05 0.5 Cd
0.666668959436302 0.33338822583723243 0.0 Cu
0.6666760444199286 0.33339389108226797 0.5 N
