System
1.0
3.120164941471452 -1.3727647e-09 -4.397105127565104
-3.1201652852691586 3.120165529854043 -4.159306771e-07
-5.7554106e-09 1.49516691e-08 8.794210486341148
Mn Al N 
2 2 4 
direct
-3.0728501607982694e-17 0.5 0.75 Mn
0.0 0.0 0.5 Mn
-3.0728501607982694e-17 0.5 0.25 Al
0.0 0.0 0.0 Al
0.4999999999976987 0.0072444084116987445 0.12499999999954281 N
0.5000000000023012 0.9927555915883011 0.6250000000004572 N
0.4855111831716843 0.49275559158698923 0.3677555915855307 N
0.5144888168283157 0.507244408413011 0.8822444084144696 N
