System
1.0
5.609286448524115 -1.2958052e-09 -6.163991438473973
-5.609286520787521 5.6092862661134095 1.047728477e-07
5.4692738e-09 3.6688819e-09 12.327982240384992
Na Ni N 
12 4 8 
direct
-5.560821019441302e-14 0.4999999999999776 0.36550191291401984 Na
0.4185345708601719 0.4185345708601692 0.7092667854300733 Na
0.5814654291398281 0.0814654291398308 0.5407332145699267 Na
0.4185345708601718 0.9185345708601692 0.9592667854300733 Na
0.4185345708601578 2.6e-15 0.7092667854300612 Na
0.581465429139842 -2.6e-15 0.2907332145699391 Na
0.5814654291398281 0.5814654291398308 0.2907332145699268 Na
0.581465429139842 0.4999999999999974 0.5407332145699388 Na
-5.57e-14 -2.2399999999999998e-14 0.1155019129140196 Na
5.575186090208125e-14 0.5000000000000225 0.13449808708598043 Na
5.57e-14 2.2399999999999998e-14 0.8844980870859803 Na
0.4185345708601577 0.5000000000000026 0.9592667854300612 Na
-3.249119140552178e-13 0.4999999999998696 0.9098034842943943 Ni
3.2489999999999996e-13 1.304e-13 0.3401965157056059 Ni
3.2488903130919227e-13 0.5000000000001306 0.5901965157056057 Ni
-3.2489999999999996e-13 -1.304e-13 0.6598034842943944 Ni
-7.502866934600466e-14 0.7872254638573756 0.33555466803497286 N
0.4255490722849605 0.7127745361424479 0.7983292041775241 N
0.5744509277146924 0.2872254638574126 0.372781131892304 N
0.42554907228530775 0.21277453614258748 0.8772188681076961 N
0.5744509277150396 0.7872254638575521 0.4516707958224759 N
2.723264322767873e-13 0.2872254638575151 0.9144453319651429 N
7.500663448731029e-14 0.7127745361426244 0.9144453319650272 N
-2.722978288138405e-13 0.21277453614248476 0.3355546680348578 N
