System
1.0
10.520504750733009 0.0654250441442806 4.641377845135366
1.103917886040248 4.757246062253196 -1.952952032e-07
-0.0412387300102036 0.009569433259181 8.447312146973186
Sr Mn N 
10 1 8 
direct
0.4141130772886125 0.7929434563543615 0.7146606465898708 Sr
0.38828011715213945 0.8058604464270294 0.14012978275397964 Sr
0.19062248793179937 0.4046892610337865 0.05989393274994042 Sr
0.8093775120682002 0.5953107389662132 0.9401060672500596 Sr
0.28714625248649805 0.3564263737589937 0.47081044041645365 Sr
0.6117198828478609 0.1941395535729702 0.8598702172460201 Sr
0.9430309781179367 0.028485010942532998 0.2259622804234591 Sr
0.056969021882063396 0.9715149890574674 0.7740377195765412 Sr
0.5858869227113872 0.2070565436456384 0.2853393534101293 Sr
0.7128537475135025 0.6435736262410066 0.5291895595835465 Sr
-8.967238743485353e-18 0.5 0.5 Mn
0.960501752378257 0.5197486238111385 0.323931953269373 N
0.1850481187506378 0.9074759406254487 0.9617073803648664 N
0.8149518812493618 0.0925240593745506 0.038292619635133474 N
0.3905325341678601 0.8047332279134508 0.44014521069635304 N
0.60946746583214 0.1952667720865491 0.5598547893036466 N
0.6113833309826117 0.6943078395095511 0.8595164237027062 N
0.3886166690173886 0.3056921604904487 0.1404835762972938 N
0.0394982476217426 0.4802513761888612 0.6760680467306274 N
