System
1.0
3.4482799917265017 -0.0074375343742141 -0.4966136986361884
1.123129128066296 -4.6022267261016925 -0.1543507113827641
1.2913203886272835 0.4283985680868154 -3.1881618837857406
Mg N 
2 2 
direct
0.9481172008753216 0.03680847157995129 -0.031253515658769375 Mg
0.4998836961729318 0.5401350180529297 0.6945901059279866 Mg
0.6078252477486623 0.09008461536962559 0.639656638151986 N
0.022660627912075782 0.7428204394218215 0.4317060443344015 N
