System
1.0
6.948852620905136 -0.0 -0.0
-0.0 6.948852620905136 -0.0
-0.0 -0.0 9.37521270722327
Zn B H N 
2 16 16 8 
direct
0.25 0.75 0.75 Zn
0.75 0.25 0.24999999999999997 Zn
0.25 0.6249057400010875 0.3898190336616444 B
0.25 0.8750942599989125 0.3898190336616444 B
0.6249057400010875 0.25 0.8898190336616447 B
0.8750942599989124 0.25 0.8898190336616447 B
0.75 0.3750942599989125 0.6101809663383552 B
0.3750942599989125 0.75 0.11018096633835549 B
0.1249057400010876 0.75 0.11018096633835549 B
0.75 0.1249057400010876 0.6101809663383552 B
0.25 0.927008338325507 0.2063325057843224 B
0.5729916616744929 0.25 0.7063325057843216 B
0.927008338325507 0.25 0.7063325057843216 B
0.75 0.4270083383255075 0.7936674942156783 B
0.75 0.0729916616744927 0.7936674942156783 B
0.4270083383255075 0.75 0.29366749421567756 B
0.0729916616744927 0.75 0.29366749421567756 B
0.25 0.572991661674493 0.2063325057843224 B
0.49235423040579207 0.75 0.0173193352359496 H
0.25 0.5076457695942075 0.48268066476405036 H
0.25 -0.0076457695942077 0.48268066476405036 H
0.5076457695942075 0.25 0.9826806647640504 H
-0.0076457695942077 0.25 0.9826806647640504 H
0.75 0.49235423040579207 0.5173193352359495 H
0.75 0.0076457695942077 0.5173193352359495 H
0.0076457695942077 0.75 0.0173193352359496 H
0.75 0.9013628065930077 0.805555740239845 H
0.25 0.0986371934069922 0.19444425976015528 H
0.4013628065930084 0.25 0.6944442597601549 H
0.0986371934069922 0.25 0.6944442597601549 H
0.75 0.5986371934069923 0.805555740239845 H
0.5986371934069923 0.75 0.3055557402398442 H
0.9013628065930077 0.75 0.3055557402398442 H
0.25 0.4013628065930084 0.19444425976015528 H
0.25 0.5129190979177936 0.8742394030195154 N
0.4870809020822062 0.75 0.6257605969804844 N
0.0129190979177937 0.75 0.6257605969804844 N
0.75 0.4870809020822062 0.12576059698048486 N
0.75 0.0129190979177937 0.12576059698048486 N
0.5129190979177936 0.25 0.37423940301951486 N
0.9870809020822064 0.25 0.37423940301951486 N
0.25 0.9870809020822064 0.8742394030195154 N
