System
1.0
-2.1176043504216686 2.1176043504216686 2.1449533815889597
2.1176043504216686 -2.1176043504216686 2.1449533815889597
2.1176043504216686 2.1176043504216686 -2.1449533815889597
H C N 
1 1 1 
direct
0.7497474388180969 0.7497474388180969 3.138888708227107e-35 H
0.0040333178591842 0.0040333178591842 -2.2524906396231494e-36 C
0.2739192433227144 0.2739192433227144 6.022756849438241e-35 N
