System
1.0
3.5556455109573446 -0.0031325381542531 -0.0948792147122589
0.9699467106229939 3.4216624880427515 -0.0711545703797908
0.1483405975420476 0.0732994724074278 5.464230518165774
Sn N 
2 2 
direct
0.5873437192326043 0.587299194787933 0.951967473400071 Sn
0.1662181206776565 0.1661657903244029 0.4520114371882698 Sn
0.5434387379973746 0.5433979957583677 0.5479245209910617 N
0.21008242209236652 0.2100320191292967 0.0479885684205999 N
