System
1.0
0.0 -0.0 5.457646009951265
-3.839233116720678 3.8392331127272397 2.7288230049756326
-3.839233112727239 -3.8392331167206777 2.7288230049756326
Cu Mo S N 
1 1 4 1 
direct
0.5 0.0 0.0 Cu
0.0 0.0 0.0 Mo
0.6428739754505521 0.31973395155415485 0.9179419987401629 S
0.8805509257448674 0.680266048445845 0.08205800125983707 S
0.0373920729952929 0.0820580012598371 0.31973395155415496 S
0.43918302580928753 0.9179419987401628 0.6802660484458452 S
0.24999999999999986 0.49999999999999994 0.5000000000000001 N
