System
1.0
-1.7813171658470224 1.7813171658470224 6.299198648770749
1.7813171658470224 -1.7813171658470224 6.299198648770749
1.7813171658470224 1.7813171658470224 -6.299198648770749
Ca Al N 
2 1 2 
direct
0.6617862927138854 0.6617862927138854 1.1327287092731301e-34 Ca
0.3382139730990579 0.3382139730990578 3.909275858575073e-34 Ca
0.0 0.0 0.0 Al
0.8558770624015418 0.8558770624015419 3.481689239220181e-34 N
0.1441232034114014 0.1441232034114014 1.5167442672754152e-34 N
