System
1.0
5.387430854236509 -0.3489073102571603 0.6524500427750629
1.7705900497736473 4.7298160864340275 2.465263462238152
0.0861441705329148 0.1562839530143777 6.014440837972022
H C S N 
5 6 2 1 
direct
0.14278724488082029 0.7782580159619644 0.14671960138857193 H
0.8872867447830841 0.24852768094387795 0.8000054463707708 H
0.23088125066495221 0.24307576749322224 0.44986661478620305 H
0.39280356088312857 0.6704498743715491 0.36023933597253405 H
0.5509218465454395 0.6902117193188467 0.9776377836348391 H
0.8976368582820327 0.13731096443433768 0.6903124906195758 C
0.08207292434130466 0.13485368010011367 0.5000273786167715 C
0.06220747108703142 0.9723998624303832 0.39205735679829895 C
0.739591544990445 0.9724896336618172 0.7286069057303124 C
0.3905991087631674 0.042624283164220685 0.023392086759771218 C
0.2446780214616087 0.8589767360804019 0.2324401551826123 C
0.8089088932915248 0.8273363378223144 0.5211550304290217 S
0.3427664423190062 0.38192790141396527 0.9288062270385069 S
0.5591000877064478 0.8918555428029776 0.9166445866722144 N
