System
1.0
3.4346310399979427 -2.42057e-11 0.6547149667671049
1.5105959215899798 8.776044365157144 1.411806172591943
-0.0180693729533623 0.0246331300829795 9.431189299834012
Sc N Cl 
5 1 8 
direct
0.8404902748314557 0.6457512459212741 0.6732672044158158 Sc
0.15950972516854423 0.35424875407872614 0.3267327955841842 Sc
0.486750640956846 0.636454188695887 0.3900455293904249 Sc
0.5132493590431537 0.3635458113041132 0.6099544706095751 Sc
0.0 0.0 0.0 Sc
-5.310896788509749e-17 0.5 0.49999999999999994 N
0.0330056863893609 0.17533128165869402 0.758657345562583 Cl
0.9669943136106388 0.824668718341306 0.2413426544374169 Cl
0.3309803437743441 0.501612902150369 0.8364254103009369 Cl
0.6690196562256562 0.4983870978496309 0.16357458969906316 Cl
0.7019480535830155 0.1632498985819122 0.43285599425206617 Cl
0.2980519464169844 0.8367501014180879 0.567144005747934 Cl
0.36656242156734437 0.1655100323866698 0.1013661244786376 Cl
0.6334375784326554 0.8344899676133303 0.8986338755213623 Cl
