System
1.0
2.157781877618703 2.157781877618703 -0.0
2.157781877618703 0.0 -2.157781877618703
-0.0 2.157781877618703 -2.157781877618703
Ru N 
1 1 
direct
0.0 0.0 0.0 Ru
0.5 0.5 0.49999999999999994 N
