System
1.0
4.879412143491661 4.879412143491661 0.0
-0.0 4.879412143491661 4.879412143491661
4.879412143491661 -0.0 4.879412143491661
H Pd N Cl 
8 1 2 6 
direct
0.9338393722126029 0.6887198759291333 0.6887198759291332 H
0.3112801240708666 0.3112801240708666 0.3112801240708666 H
0.3112801240708666 0.06616062778739731 0.3112801240708666 H
0.3112801240708666 0.3112801240708666 0.0661606277873973 H
0.0 0.0 0.0 H
0.6887198759291332 0.6887198759291333 0.6887198759291332 H
0.6887198759291332 0.933839372212603 0.6887198759291332 H
0.6887198759291332 0.6887198759291333 0.9338393722126029 H
0.06616062778739729 0.3112801240708666 0.3112801240708666 Pd
0.75 0.7499999999999999 0.75 N
0.25 0.24999999999999997 0.25 N
0.759335289030947 0.7593352890309472 0.24066471096905337 Cl
0.24066471096905334 0.7593352890309472 0.759335289030947 Cl
0.24066471096905337 0.24066471096905342 0.759335289030947 Cl
0.24066471096905337 0.7593352890309472 0.24066471096905337 Cl
0.759335289030947 0.24066471096905342 0.24066471096905337 Cl
0.7593352890309473 0.24066471096905337 0.7593352890309472 Cl
