System
1.0
4.901094587066571 0.0 0.0
-0.0 4.901094587066571 0.0
0.0 0.0 4.901094587066571
Sm Al N 
3 1 1 
direct
0.5 0.5 0.0 Sm
0.5 0.0 0.5 Sm
0.0 0.5 0.5 Sm
0.0 0.0 0.0 Al
0.5 0.5 0.5 N
