System
1.0
3.786270166277302 -0.0 0.0
-0.0 3.786270166277302 0.0
0.0 -0.0 3.786270166277302
Mn Zn N 
3 1 1 
direct
0.5 0.0 0.5 Mn
0.0 0.5 0.5 Mn
0.5 0.5 0.0 Mn
0.0 0.0 0.0 Zn
0.5 0.5 0.5 N
