System
1.0
1.6314781034736483 -2.8258025210692694 -0.0
1.6314781034736483 2.8258025210692694 -0.0
-0.0 -0.0 14.410740498291963
Zr Al N 
4 2 2 
direct
0.6666669999999967 0.33333300000000315 0.9113340703272123 Zr
0.33333300000000315 0.6666669999999968 0.41133407032721236 Zr
0.33333300000000315 0.6666669999999968 0.0886659296727877 Zr
0.6666669999999967 0.33333300000000315 0.5886659296727877 Zr
0.6666669999999967 0.33333300000000315 0.25 Al
0.33333300000000315 0.6666669999999968 0.75 Al
0.0 0.0 0.0 N
0.0 0.0 0.5 N
