System
1.0
3.7975806951298647 0.055107637841622 -0.599304810303039
-1.3092175390273286 7.979330482054767 -3.0026334758644366
0.0834152662065971 0.2369379837806432 9.58500268295995
H C S N 
14 12 2 2 
direct
0.8310171176888467 0.1789171656778162 0.08398300740099157 H
0.43724972014693153 0.983894085500619 0.7047485570450146 H
0.9372491921777206 0.48389406995137074 0.20474853097940718 H
0.7922789556530127 0.8196574883812916 0.4819725892101459 H
0.2922787507405545 0.319657284655564 0.9819725890121936 H
0.41045230461649523 0.1902276991541087 0.13348697179598948 H
0.672959475257567 0.4144777068499443 0.49886344769500957 H
0.9104506897481305 0.6902281146799529 0.6334872602188758 H
0.8515527229805663 0.23987002557014456 0.6724274969139871 H
0.3515523764861523 0.7398702752611706 0.17242823270450747 H
0.21781769082551397 0.833860891042001 0.4383752278327391 H
0.7178177650633185 0.3338609636547807 0.9383750165807234 H
0.33101449797635657 0.6789171710092793 0.5839829152384245 H
0.1729590998446323 0.9144777715246444 -0.0011364426745150986 H
0.984019057116359 0.0559321382869192 0.4788096089650652 C
0.047309683146989974 0.9030567658665951 0.514724802660301 C
0.5473106010327272 0.40305622925904205 0.0147252926798955 C
0.18864190731445057 0.750751706728919 0.6717388566952266 C
0.6886431170576408 0.25075224809411417 0.1717385846401157 C
0.484018442588877 0.5559322968339128 0.9788093716600015 C
0.28339697049872015 0.7990165920269489 0.9614947339265382 C
0.3250129909675745 0.7247377048105296 0.815663160979937 C
0.8737115388382273 0.20271425989796832 0.5545601271149098 C
0.3737108285837785 0.7027141561074037 0.05455914635802681 C
0.7833974218736488 0.2990172645140986 0.46149497748561913 C
0.8250146738702905 0.2247372332085781 0.31566264398195437 C
0.4832750011262811 0.5382329572828495 0.7942863335342346 S
0.9832757542443019 0.03823324348022291 0.2942861408729696 S
0.6838452166413125 0.42102172854158165 0.17151492225797324 N
0.1838444358930419 0.921021762147616 0.6715148962337326 N
