System
1.0
2.132106770092604 4.557571913108505 0.0138594376892037
-2.132106770092604 4.557571913108505 0.0138594376892037
0.0 0.378571020535275 6.328608822394945
Ca B H N 
1 2 10 2 
direct
0.6001102874417444 0.3998897125582555 1.5799413888604592e-19 Ca
0.25664427606677687 0.08599153596448292 0.7842424609187829 B
0.914008464035517 0.7433557239332228 0.2157575390812171 B
0.00788444862693057 0.1446945050589223 0.6963311580646081 H
0.8553054949410774 -0.007884448626930489 0.3036688419353924 H
0.21231841182355507 0.48579457496250683 0.2574841149186676 H
0.5142054250374927 0.7876815881764445 0.7425158850813323 H
0.19958604815452397 0.09345546195269351 0.9796578995438358 H
0.9065445380473073 0.8004139518454767 0.0203421004561649 H
0.4761606966443423 0.255030056590833 0.5782942025796151 H
0.7449699434091673 0.5238393033556573 0.4217057974203848 H
0.41958361317040777 0.8910936349702321 0.3162093934037525 H
0.10890636502976765 0.5804163868295925 0.6837906065962465 H
0.3307132532523522 0.3329432656809586 0.7162793228832596 N
0.6670567343190412 0.6692867467476473 0.2837206771167415 N
