System
1.0
1.9048914225983409 -3.299369357253863 0.0
1.9048914225983409 3.299369357253863 -0.0
0.0 0.0 11.016317787096957
Cu C S N 
2 2 2 2 
direct
0.6666669999999967 0.3333330000000033 0.5016732416962766 Cu
0.3333330000000032 0.6666669999999969 0.0016732416962771002 Cu
0.3333330000000032 0.6666669999999969 0.280135177894916 C
0.6666669999999967 0.3333330000000033 0.780135177894916 C
0.6666669999999967 0.3333330000000033 0.9307931306135903 S
0.3333330000000032 0.6666669999999969 0.4307931306135898 S
0.6666669999999967 0.3333330000000033 0.6735984497952193 N
0.3333330000000032 0.6666669999999969 0.1735984497952194 N
