System
1.0
2.8335545754850915 -3.7870379608e-06 2e-16
-1.4167805732640721 2.4540793469948317 2e-16
-0.0 -0.0 9.593004411450128
V Co N 
2 2 4 
direct
0.666611531803233 0.3332035549045643 0.25 V
0.3333886057911949 0.6668150573521671 0.75 V
-2.7349042999999993e-08 -1.6202660218999999e-06 -1.64940536e-08 Co
-2.7349042999999993e-08 -1.6202660218999999e-06 0.5000000164940535 Co
0.6666604154459846 0.3333499264796911 0.879125282660977 N
0.33333954310584435 0.6666900243246296 0.1208752375091036 N
0.33333954310584435 0.6666900243246296 0.3791247624908964 N
0.6666604154459846 0.3333499264796911 0.620874717339023 N
