System
1.0
4.919163423515179 4.919163423515179 -0.0
-0.0 4.919163423515179 4.919163423515179
4.919163423515179 -0.0 4.919163423515179
Re H N Cl 
1 8 2 6 
direct
0.0 0.0 0.0 Re
0.3108464829776631 0.0674605510670106 0.3108464829776631 H
0.31084648297766304 0.3108464829776631 0.06746055106701057 H
0.06746055106701061 0.3108464829776631 0.3108464829776631 H
0.3108464829776631 0.3108464829776631 0.3108464829776631 H
0.6891535170223367 0.9325394489329896 0.6891535170223366 H
0.6891535170223367 0.6891535170223367 0.9325394489329895 H
0.9325394489329895 0.6891535170223367 0.6891535170223366 H
0.6891535170223366 0.6891535170223367 0.6891535170223366 H
0.75 0.75 0.75 N
0.25 0.25 0.25 N
0.758221462754099 0.758221462754099 0.2417785372459009 Cl
0.2417785372459007 0.758221462754099 0.758221462754099 Cl
0.24177853724590076 0.24177853724590076 0.7582214627540989 Cl
0.24177853724590068 0.758221462754099 0.24177853724590084 Cl
0.7582214627540991 0.24177853724590073 0.2417785372459008 Cl
0.7582214627540991 0.24177853724590082 0.7582214627540989 Cl
