System
1.0
3.5901111032581614 0.0 0.0
0.0 3.7575561943044424 -0.5568287256085348
0.0 -0.7858453998371752 7.3912259623296235
Na Li N 
1 5 2 
direct
0.49999999999999994 0.7432495606367706 0.878151696411309 Na
0.0 0.12946952651207608 0.6489508303747278 Li
0.49999999999999994 0.9307177997696502 0.244425844870639 Li
0.49999999999999994 0.5748487113652823 0.5388940045437826 Li
0.0 0.4892001896371295 0.3617726959978636 Li
0.0 0.34371413735123046 0.0721734720240545 Li
0.49999999999999994 0.40800682625286117 0.1982733056049793 N
0.0 0.6247922484749999 0.639358150172653 N
