System
1.0
4.574991634886215 -1e-16 3e-16
7e-16 4.806038758023824 3e-16
-0.0 -0.0 12.586333977245669
V O F 
4 4 12 
direct
0.0 0.0 0.11705699968431389 V
0.5 0.0 0.9205925212117919 V
0.0 0.5 0.6170569996843143 V
0.5 0.5 0.42059252121179236 V
0.2541362316850976 0.1505823556557208 0.0394212489918413 O
0.2541362316850976 0.3494176443442792 0.5394212489918417 O
0.7458637683149023 0.650582355655721 0.5394212489918417 O
0.7458637683149023 0.849417644344279 0.0394212489918413 O
0.2768970047803099 0.7016110392933614 0.9377217512116035 F
0.2768970047803099 0.7983889607066387 0.4377217512116031 F
0.18604827671847352 0.7482990456093785 0.6913945334094099 F
0.7222651042035669 0.6713960946604997 0.3288592059390926 F
0.2777348957964328 0.32860390533950096 0.3288592059390926 F
0.8139517232815265 0.24829904560937813 0.19139453340941 F
0.7231029952196902 0.20161103929336152 0.4377217512116031 F
0.7231029952196902 0.2983889607066387 0.9377217512116035 F
0.18604827671847352 0.7517009543906215 0.1913945334094099 F
0.2777348957964328 0.17139609466049882 0.8288592059390933 F
0.8139517232815265 0.2517009543906216 0.6913945334094099 F
0.7222651042035669 0.8286039053395005 0.8288592059390933 F
