System
1.0
3.203396732271039 -0.4938950022226842 0.0
-1.9307696269759633 3.140448097500292 0.0
0.0 0.0 3.755787871595252
Li H O 
1 1 1 
direct
0.04767836701202921 0.3581585819852337 0.0 Li
0.17206103028054306 -0.05374160318247749 0.0 H
0.7802606027231735 0.6955830211972438 0.0 O
