System
1.0
5.06415566126139 0.0035673053013292 -0.0163691761298929
-0.008447257920447 5.674926778774343 -1.7427489012688895
-0.0060288047698118 -0.0184746036603804 10.045464170424374
Ta Mo O 
4 2 16 
direct
0.7559956294493837 0.3246408651102836 0.2770129927910293 Ta
0.7434018542430567 0.048040338644361295 0.7225153772984942 Ta
0.24350663760109437 0.6724634323681721 0.7224792674880961 Ta
0.2561015203371885 0.9490637422493577 0.2769764686706884 Ta
0.7497852177900776 0.6682380627849155 0.9995386610952046 Mo
0.24972335399303328 0.32886306298282486 0.9999520403389791 Mo
0.8805652062098058 0.5875218693151868 0.3851080658822361 O
0.6188837007208211 0.2027532418867141 0.6143145945448505 O
0.1189324695831614 0.4095866050602647 0.6143839937677782 O
0.3806156672784847 0.7943553230785704 0.38517859859529324 O
0.07960213396794008 0.9210248823942895 0.6617342898468904 O
0.41978579165473845 0.2584165381363325 0.3377302921537035 O
0.06994906755634309 0.667036456859803 0.10788315932849049 O
0.5695342723296063 0.4379468789929641 0.10803824147221489 O
0.9295527642513449 0.3300688819946936 0.8916095688870623 O
0.9199005079980229 0.0760777787974972 0.3377567795296819 O
0.5806064262190688 0.905053012014598 0.11852735052652877 O
0.919118118456421 0.7869390338996317 0.8810392149509477 O
0.41889717297505075 0.0920420052516929 0.8809649052343025 O
0.08038513022568039 0.210168845569975 0.11845299529228048 O
0.4299665592637705 0.5591536601586887 0.8914544344444317 O
0.5797167978958891 0.7386884824491942 0.6617607078608204 O
