System
1.0
-2.757201561468449 2.757201561468449 9.06044359079474
2.757201561468449 -2.757201561468449 9.06044359079474
2.757201561468449 2.757201561468449 -9.06044359079474
Rb I O 
4 2 1 
direct
0.5 0.0 0.5 Rb
0.14951218424842647 0.1495121842484265 6.569167761402544e-35 Rb
0.8504878157515732 0.8504878157515733 9.171819953601747e-34 Rb
0.0 0.5 0.5 Rb
0.3548877748314036 0.3548877748314036 3.552757414652545e-34 I
0.6451122251685966 0.6451122251685967 -2.3571687161193963e-34 I
0.0 0.0 0.0 O
