System
1.0
2.801237351954944 -1.85810488915e-05 0.5745260715327503
1.4004298038391636 7.123801346639666 0.2878460566215026
-0.0309386957242944 0.0007629266170581 7.266390392938626
V O 
4 8 
direct
0.6372414915011934 0.1841254548441309 0.541385655039847 V
0.17859716493021272 0.45866245713315695 0.1841296647705696 V
0.8214029099820023 0.5413378789876969 0.8158708444497218 V
0.36275864110668227 0.8158748762396993 0.4586148623502497 V
0.8388733518983615 0.7057294378659551 0.6165216936746465 O
0.4553916331121377 0.38340285070816155 0.7057988134643735 O
0.5446084842855646 0.6165974811437334 0.2942016795074145 O
0.16112699329393684 0.2942708792672777 0.38347879451582895 O
0.1566828125622922 0.04411741796467649 0.6425231927880689 O
0.7991572214842381 0.3574765851080944 0.044202066566311905 O
0.843317283765945 0.9558829166859237 0.3574773171323172 O
0.2008430120774393 0.6425237640515005 0.9557984157406586 O
