System
1.0
2.845359789952138 1.4462281e-09 -0.0
-1.4226803914594441 4.718687500239065 -0.0
-0.0 -0.0 7.004422723227331
Mg Ge O 
2 2 6 
direct
0.7401474517481047 0.4802949034962238 0.25 Mg
0.2598525482518952 0.5197050965037766 0.7500000000000001 Mg
0.0 0.0 0.5 Ge
0.0 0.0 0.0 Ge
0.6319653566656208 0.2639307133312119 0.9396566401926554 O
0.3680346433343789 0.7360692866687882 0.06034335980734461 O
0.3680346433343789 0.7360692866687882 0.43965664019265555 O
0.6319653566656208 0.2639307133312119 0.5603433598073447 O
0.9150462336342026 0.8300924672683572 0.7500000000000001 O
0.0849537663657973 0.1699075327316427 0.25 O
