System
1.0
8.558098129068014 -0.0249795573268498 -2.904175823638294
-4.045273161521522 7.541712843493535 -2.9041758236382935
-0.0149969871128868 -0.0249795533915725 9.037424834199747
Mg Al O 
16 12 1 
direct
0.4643174761327477 0.4643174761327476 0.6941912955440844 Mg
0.46431747613242874 0.6941912955438995 0.4643174761324066 Mg
0.002884508384979097 0.32972725301707917 0.5943644473391393 Mg
0.006402111553784604 0.3287510243029947 0.006402111553916501 Mg
0.5943644473391325 0.0028845083850875 0.3297272530171964 Mg
0.2902895101469871 0.7017064459407223 0.7017064459406706 Mg
0.7017064459407223 0.2902895101469871 0.7017064459406706 Mg
0.0028845083850875313 0.5943644473391325 0.32972725301719635 Mg
0.3297272530173118 0.5943644473392565 0.0028845083851383943 Mg
0.3297272530170792 0.0028845083849790994 0.5943644473391393 Mg
0.5943644473392566 0.3297272530173118 0.00288450838513845 Mg
0.6941912955438996 0.46431747613242874 0.46431747613240665 Mg
0.8062135121531933 0.8062135121531931 0.8062135121533338 Mg
0.7017064459406424 0.7017064459406422 0.2902895101469784 Mg
0.006402111554244799 0.0064021115542448005 0.3287510243031438 Mg
0.3287510243029947 0.006402111553784599 0.006402111553916501 Mg
0.1620151057564749 0.3557428101299942 0.35574281013005865 Al
0.6399299428685058 0.8345798367075336 0.02589856306307306 Al
0.639929942868738 0.0258985630632727 0.8345798367076499 Al
0.8025655972346374 0.20458510445057249 0.20458510445067107 Al
0.20458510445057249 0.8025655972346373 0.20458510445067102 Al
0.02589856306306745 0.8345798367075606 0.6399299428685961 Al
0.8345798367075336 0.6399299428685058 0.025898563063073116 Al
0.35574281012999426 0.16201510575647488 0.35574281013005865 Al
0.3557428101301167 0.3557428101301167 0.1620151057565659 Al
0.20458510445074052 0.2045851044507405 0.8025655972347081 Al
0.8345798367075606 0.025898563063067495 0.6399299428685962 Al
0.02589856306327264 0.6399299428687379 0.8345798367076498 Al
0.5957149556843124 0.5957149556843124 0.5957149556841673 O
