System
1.0
5.932929672258691 -0.0 0.0
-2.9664648361293455 5.13806744091451 -0.0
0.0 -0.0 9.228070891493417
Mo O 
6 16 
direct
0.6661180325258429 0.8330595162606844 0.250460289625471 Mo
0.8330605162651606 0.1669414837393134 0.7504602896254712 Mo
0.16694148373931342 0.3338829674786268 0.250460289625471 Mo
0.8330585162606869 0.6661180325213708 0.7504602896254712 Mo
0.3338829674741546 0.1669414837393134 0.7504602896254712 Mo
0.16694148373484127 0.8330595162606844 0.250460289625471 Mo
0.9703942416751611 0.48519712082607075 0.8615018122590344 O
0.33333300000000327 0.6666659999999993 0.13000806548380484 O
0.0 0.0 0.8700267311142298 O
0.0 0.0 0.3700267311142296 O
0.5148018791739317 0.029604758347860805 0.8615018122590344 O
0.4851981208260683 0.9703962416521363 0.36150081225903 O
0.02960475832484144 0.5148018791739317 0.36150081225903 O
0.3034913114025897 0.15174615569120303 0.1397412992494849 O
0.15174615571138422 0.8482548443087943 0.6397402992494807 O
0.4851971208490905 0.5148018791739317 0.36150081225903 O
0.8482538443087969 0.6965086886175915 0.1397412992494849 O
0.15174615569120303 0.3034923113824131 0.6397402992494807 O
0.6965086885974101 0.8482548443087943 0.6397402992494807 O
0.848254844288613 0.15174615569120303 0.1397412992494849 O
0.5148018791509126 0.48519712082607075 0.8615018122590344 O
0.6666669999999968 0.3333340000000007 0.6300080654838048 O
