System
1.0
0.0 8.100219983532302 -0.0047249251026574
6.096192868761886 0.0 0.0
0.0 -3.8555455731231962 -9.448018481265514
As Cl O 
4 12 4 
direct
0.661749247847303 0.5607233634776954 0.9874161310622164 As
0.33825075215269707 0.06072336347769491 0.5125838689377836 As
0.33825075215269707 0.4392766365223049 0.012583868937783698 As
0.661749247847303 0.9392766365223046 0.4874161310622163 As
0.7971962595197392 0.879585101480443 0.9875022066909916 Cl
0.2028037404802607 0.3795851014804432 0.5124977933090084 Cl
0.2028037404802607 0.1204148985195566 0.0124977933090079 Cl
0.797196259519739 0.620414898519557 0.48750220669099215 Cl
0.8858883383954291 0.4285774050052759 0.1634527408589966 Cl
0.114111661604571 0.9285774050052753 0.3365472591410036 Cl
0.11411166160457098 0.5714225949947248 0.8365472591410037 Cl
0.8858883383954292 0.0714225949947244 0.6634527408589963 Cl
0.6557081817259471 0.457266187822345 0.7833263149944043 Cl
0.3442918182740532 0.9572661878223451 0.7166736850055956 Cl
0.3442918182740532 0.5427338121776549 0.21667368500559547 Cl
0.6557081817259471 0.042733812177655005 0.28332631499440436 Cl
0.47819866693483093 0.6949066702379639 0.0056321355403834 O
0.5218013330651692 0.1949066702379637 0.4943678644596165 O
0.5218013330651691 0.3050933297620362 0.9943678644596167 O
0.47819866693483093 0.8050933297620361 0.5056321355403832 O
