System
1.0
4.962128653226014 -1.2922542e-09 2.8648862930685506
1.6540432153053064 4.678339720078783 2.8648862930685506
-0.0 0.0 5.729772586137101
Ca Sn O 
2 2 6 
direct
0.0 0.0 0.0 Ca
0.5 0.5 0.4999999999999999 Ca
0.25 0.25 0.24999999999999994 Sn
0.75 0.75 0.7499999999999999 Sn
0.5 0.5 -7.030282097843891e-17 O
0.5 0.0 0.5000000000000001 O
-2.3302998310037932e-17 0.5 2.035974074203837e-17 O
0.5 0.0 2.035974074203837e-17 O
0.0 0.0 0.49999999999999994 O
-2.3302998310037932e-17 0.5 0.5000000000000001 O
