System
1.0
3.7175841042361446 -0.0 -0.0
-0.0 3.7175841042361446 0.0
-0.0 0.0 7.571421107271342
Ba Al Cu O 
1 1 2 5 
direct
0.0 0.0 0.965414685969923 Ba
0.0 0.0 0.4653709086504014 Al
0.49999999999999994 0.49999999999999994 0.6869369899429187 Cu
0.49999999999999994 0.49999999999999994 0.2437178542497145 Cu
0.0 0.49999999999999994 0.6239296331597436 O
0.49999999999999994 0.0 0.6239296331597436 O
0.0 0.49999999999999994 0.3066626206795876 O
0.49999999999999994 0.0 0.3066626206795876 O
0.49999999999999994 0.49999999999999994 0.9652880535083818 O
