System
1.0
3.7511047844444416 0.0005754660807778 5.761764126948185
1.710723851484528 3.338293907378397 5.76176412706134
0.0009409296589508 0.0005754644189361 6.875224122214244
Sm O F 
2 2 2 
direct
0.7581711509904244 0.758171150989993 0.7581711509897898 Sm
0.24182884900957574 0.2418288490100068 0.24182884901021054 Sm
0.8784045871191952 0.8784045871192736 0.8784045871193115 O
0.12159541288080503 0.12159541288072617 0.121595412880689 O
0.3697546071480335 0.3697546071479667 0.369754607147935 F
0.6302453928519667 0.630245392852033 0.6302453928520648 F
