System
1.0
3.3576163067586564 1.958400755415162 0.4621816285307602
-3.3576163067586564 1.958400755415162 -0.4621816285307602
3.5967975845568816 0.0 6.957067206960173
Na O 
4 2 
direct
0.2499630461829298 0.7500369538170707 0.6249543983620512 Na
0.2500376145861019 0.7499623854138983 0.12496053887933525 Na
0.7499623854138984 0.25003761458610185 0.8750394611206648 Na
0.7500369538170709 0.24996304618292978 0.37504560163794887 Na
0.5000569796068204 0.4999430203931791 0.2499999813447175 O
0.49994302039317906 0.5000569796068205 0.7500000186552821 O
