System
1.0
-5.021001512127521 -0.0179383624730679 0.0017927829277561
0.8967320704774239 5.186221777887545 -0.0361700266658202
-0.0729009069605121 -1.7670441349416268 -5.509315247643546
Li Co O F 
4 3 2 6 
direct
0.2568927069096035 0.9742504441432251 0.8660775265741769 Li
0.7610072494537535 -0.0032771215527965 0.6330673610311564 Li
0.23899275054624627 0.003277121552796512 0.3669326389688436 Li
0.7431072930903971 0.0257495558567745 0.1339224734258231 Li
0.5016167168311348 0.4957538814335474 0.7789109534514909 Co
0.49838328316886504 0.5042461185664526 0.2210890465485089 Co
5.448971390457642e-18 0.5 1.0352280284910689e-19 Co
0.64226873000421 0.254954223562217 0.9371688266034419 O
0.3577312699957907 0.7450457764377831 0.062831173396558 O
0.1340836067544489 0.2070126408956657 0.6877470815894666 F
0.8721053863767422 0.7717156018616423 0.8265761263271613 F
0.40126523721451435 0.7449371773161994 0.5645617575122582 F
0.5987347627854857 0.2550628226838009 0.43543824248774166 F
0.8659163932455515 0.7929873591043346 0.3122529184105334 F
0.1278946136232579 0.22828439813835757 0.1734238736728382 F
