System
1.0
3.7577728534512183 0.0 0.0
0.0 3.7577728534512183 0.0
0.0 -0.0 7.631715725925045
Ba Al Cr Cu O 
1 1 1 1 5 
direct
0.0 0.0 0.9969179130440529 Ba
0.0 0.0 0.45789462065411607 Al
0.5 0.5 0.6854251360542087 Cr
0.5 0.5 0.27080331492224213 Cu
0.0 0.5 0.6241932083703028 O
0.5 0.0 0.6241932083703028 O
0.0 0.5 0.3008176058458669 O
0.5 0.0 0.3008176058458669 O
0.5 0.5 0.9268553868930302 O
