System
1.0
5.314890736785756 -0.0304689939815932 1.0401629901379994
1.1406416742465264 6.636046228259786 0.9129779443966174
-0.0477900566531873 0.0586406308543678 6.794623418425072
Ca Co Ge O 
2 2 4 12 
direct
0.24999327500278848 0.3068039403697011 0.6932041718394797 Ca
0.7500070891658611 0.6931980037764226 0.3067970819121763 Ca
0.7499798865461652 0.08453762655516822 0.9154608612919074 Co
0.25001649178245705 0.9154608670751625 0.08454190200853218 Co
0.2255854437129022 0.8170311140912052 0.6133743761462412 Ge
0.27442091654109224 0.38662367104092327 0.182986236298438 Ge
0.7744155024910934 0.18297102815171645 0.3866256684850798 Ge
0.7255790138761944 0.6133769955683073 0.8170155612587667 Ge
0.5230599137612495 0.3937553199101522 0.3270646586776852 O
0.9769496687915653 0.6729387808126231 0.6062333426971647 O
0.8494348951678967 0.3674523656187872 0.9026354442882693 O
0.6505397011264347 0.09734635816705081 0.6325479471678925 O
0.15056517265365035 0.6325453073257641 0.0973619477783394 O
0.3667260275653855 0.20308479794053547 0.014613187008306898 O
0.6332744507478109 0.796917462134971 0.9853894664709668 O
0.8667408696636524 0.014612718977400801 0.20307086980079156 O
0.02305715047865579 0.32705825055982013 0.3937676727430389 O
0.1332555363580756 0.9853853184595373 0.7969250648898901 O
0.3494586076068648 0.9026542667572235 0.3674522349677016 O
0.4769383869602078 0.6062468067075126 0.6729323042693248 O
