System
1.0
7.927899476631849 -0.0171685909355214 -0.6519931526046492
-3.282973018149313 8.601988348773329 -3.4870141619184705
-0.0160078409336731 -0.0080411005405745 7.249990959804573
Ca B H O 
4 6 26 26 
direct
0.917712077427875 0.9651226258397437 0.7411374300842215 Ca
0.08228792257212551 0.034877374160256595 0.258862569915778 Ca
0.8868731211655985 0.32959265931500187 0.5813093128354164 Ca
0.11312687883440115 0.6704073406849973 0.4186906871645835 Ca
0.7166742640838113 0.9733162506432163 0.3646521555872015 B
0.283325735916189 0.026683749356783696 0.6353478444127979 B
0.7618014249517908 0.7116308397483947 0.31060869556690185 B
0.2381985750482095 0.28836916025160464 0.6893913044330973 B
0.4691374485981177 0.711022596065513 0.13871894089406822 B
0.5308625514018817 0.28897740393448634 0.8612810591059318 B
0.4300652898809775 0.14208222538282927 0.10838235019392281 H
0.5621707370230508 0.0039431486445313 0.8347860727690548 H
0.4378292629769492 0.9960568513554688 0.16521392723094575 H
0.9903365457679629 0.6904952034966171 0.8088970124408948 H
0.009663454232037455 0.3095047965033828 0.1911029875591051 H
0.4570866869200817 0.6231091670620058 0.4221394170479294 H
0.5681896655091806 0.35112212222545 0.34544364135323774 H
0.4318103344908201 0.6488778777745499 0.6545563586467618 H
0.5429133130799184 0.3768908329379943 0.5778605829520702 H
0.5699347101190227 0.8579177746171707 0.8916176498060775 H
0.8530915967387418 0.3696968613602425 0.14979314797995416 H
0.2111629612095261 0.22620487952942256 0.0660222370925786 H
0.14690840326125848 0.6303031386397576 0.850206852020046 H
0.5014544967659714 0.43121249011679463 0.13205100369396913 H
0.7888370387904738 0.7737951204705773 0.9339777629074215 H
0.371396447319146 0.9138035295648108 0.36995348094009983 H
0.7498937032239408 0.05696529211024659 0.1356892808942323 H
0.2501062967760592 0.9430347078897532 0.8643107191057675 H
0.7441301593897959 0.5936673829542278 0.5071864151847514 H
0.628603552680855 0.0861964704351888 0.6300465190599002 H
0.9051209411053173 0.7052752326844167 0.0848803091777923 H
0.0948800588946875 0.29472476731558334 0.915119690822208 H
0.22374207306895078 0.5335382260299764 0.023243168363558584 H
0.776257926931049 0.46646177397002375 0.9767568316364416 H
0.25586984061020446 0.40633261704577184 0.4928135848152486 H
0.4985455032340289 0.568787509883206 0.8679489963060306 H
0.9508970192588464 0.38958663782490494 0.26038447802278225 O
0.5121170730217713 0.6809308506712487 0.9310692531944565 O
0.48788292697822866 0.31906914932875113 0.068930746805544 O
0.5296578691808156 0.8809171272785363 0.2557878937787361 O
0.4703421308191844 0.11908287272146288 0.7442121062212634 O
0.6420319165362339 0.9546715534267681 0.8780129844774971 O
0.0795078790130383 0.1813064005468603 0.05164175378657331 O
0.3579680834637664 0.045328446573231894 0.1219870155225023 O
0.04910298074115428 0.610413362175095 0.7396155219772172 O
0.726843903870894 0.35571135390184405 0.8752056740563694 O
0.9204921209869616 0.8186935994531398 0.9483582462134268 O
0.27315609612910613 0.6442886460981558 0.12479432594363038 O
0.8172223065031856 0.6918965938434182 0.499149830289318 O
0.5648936590244138 0.6393322701217931 0.2404700878233476 O
0.1323670371049929 0.3579654258224709 0.8333661378555497 O
0.8676329628950074 0.6420345741775284 0.166633862144451 O
0.1827776934968138 0.30810340615658194 0.5008501697106821 O
0.17091483201711402 0.1211103404757891 0.6396595418209617 O
0.8290851679828865 0.8788896595242106 0.36034045817903815 O
0.19755122220538754 0.9103422778890289 0.7196822516932353 O
0.8024487777946125 0.0896577221109713 0.28031774830676437 O
0.2603885361649481 0.9267249164115983 0.4186576835784121 O
0.7396114638350522 0.0732750835884014 0.5813423164215876 O
0.631983997905458 0.39410752487851397 0.48806534280995567 O
0.43510634097558604 0.3606677298782066 0.7595299121766523 O
0.3680160020945424 0.6058924751214855 0.5119346571900443 O
