System
1.0
5.562541074718934 -0.0376578665759579 0.0255766009277724
0.0243119208098675 3.1598397255802686 9.813305630605512
2.8138844753864487 -4.798472928479423 0.0255766011177323
Zr N O 
8 8 4 
direct
0.4147345831702756 0.7129699883087299 0.14587655386800438 Zr
0.3236925218663067 0.0385067614763981 0.3818066066395027 Zr
0.16897488975667385 0.463013086799178 0.6660232188364421 Zr
0.046989867963370714 0.786986913200832 0.8680120234442263 Zr
0.9067001548375162 0.2114932385235987 0.1378007166565023 Zr
0.5636285750470658 0.2874765044980408 0.8597474899111266 Zr
0.6777290145868566 0.9625234955019657 0.6488939204546166 Zr
0.8170924344411894 0.5370300116912705 0.37229542851980396 Zr
0.8813236812820903 0.3678630117185692 0.9448701288415001 N
0.833036377330774 0.6303855941132983 0.7460050912912667 N
0.5870385961666696 0.37571388513601883 0.5451871909073929 N
0.6729928828776434 0.8821369882814225 0.2508133069991524 N
0.08052769422840157 0.8742861148639817 0.5372465186972757 N
0.6238682574506967 0.12244478306339991 0.04277608760680361 N
0.13437950282156408 0.619614405886704 0.03657802855551141 N
0.32966969545615843 0.1275552169366003 0.753686959486053 N
0.3798523240227623 0.8661373030252645 0.93103835677127 O
0.18509894625533774 0.3838626969747337 0.2540113729512697 O
0.44063233441833144 0.6249999999999949 0.4343676655823772 O
0.9320366660203234 0.12499999999999839 0.4429633339799102 O
