System
1.0
3.7321524906811994 0.0 0.0
0.0 3.7321524906811994 0.0
0.0 0.0 7.757983993242263
Ba Mn Al Cu O 
1 1 1 1 5 
direct
0.0 0.0 0.0027505652335066003 Ba
0.5 0.5 0.3168518269186343 Mn
0.0 0.0 0.544946509771382 Al
0.5 0.5 0.7320670553697928 Cu
0.5 0.0 0.3785865860098959 O
0.0 0.5 0.3785865860098959 O
0.5 0.0 0.6948346721036675 O
0.0 0.5 0.6948346721036675 O
0.5 0.5 0.0686475264795501 O
