System
1.0
6.477550977038637 0.0 0.0
-3.2387754885193183 5.787402670571155 -0.2989777436828832
0.0 -0.3759960118545188 7.4708198439600695
Rb Te O 
4 2 6 
direct
0.0 0.0 0.0 Rb
0.3207888200249708 0.6415776400499488 0.8617471805894309 Rb
-2.020419801486162e-18 2.1028584444353288e-18 0.5 Rb
0.6792111799750291 0.3584223599500511 0.1382528194105694 Rb
0.3418289660906473 0.6836569321812901 0.3487951508900003 Te
0.6581710339093525 0.31634306781871 0.6512048491099994 Te
0.16652106553624907 0.7800720780719105 0.2136242662409942 O
0.38644898746433926 0.2199279219280902 0.7863757337590056 O
0.8334789344637509 0.2199279219280902 0.7863757337590056 O
0.6135510125356606 0.7800720780719105 0.2136242662409942 O
0.8181137122222285 0.6362264244444509 0.7235027712604533 O
0.1818862877777721 0.36377357555554873 0.276497228739547 O
