System
1.0
0.0 5.719250922948771 -0.0685040112491976
8.722446206512181 0.0 0.0
0.0 -2.9094988898398952 -7.273125694602147
Na Ni O 
12 4 8 
direct
0.2664947128175427 0.284130403178018 0.18996863227402444 Na
0.23647746289763996 0.9668904246771313 0.3729136572216646 Na
0.25501406333767473 0.5369885464526691 0.49809960917370033 Na
0.2664947128175428 0.2158695968219818 0.689968632274025 Na
0.23647746289763996 0.5331095753228687 0.8729136572216648 Na
0.2550140633376747 0.9630114535473309 -0.0019003908262999998 Na
0.7335052871824576 0.7158695968219814 0.8100313677259751 Na
0.76352253710236 0.4668904246771314 0.1270863427783353 Na
0.7335052871824578 0.7841304031780185 0.31003136772597567 Na
0.744985936662326 0.4630114535473304 0.5019003908262997 Na
0.76352253710236 0.03310957532286849 0.6270863427783352 Na
0.744985936662326 0.03698854645266939 0.001900390826299699 Na
0.20060715952514066 0.8225956876844083 0.6703714642271289 Ni
0.7993928404748596 0.322595687684408 0.8296285357728711 Ni
0.20060715952514066 0.6774043123155917 0.1703714642271285 Ni
0.7993928404748596 0.1774043123155916 0.3296285357728718 Ni
0.4458180609092737 0.9601172523054056 0.724392589161343 O
0.4458180609092736 0.5398827476945944 0.22439258916134341 O
0.5541819390907262 0.0398827476945943 0.2756074108386568 O
0.03444054241364105 0.1797099690591421 0.8886515536056528 O
0.9655594575863585 0.679709969059142 0.6113484463943472 O
0.03444054241364102 0.3202900309408581 0.3886515536056527 O
0.9655594575863584 0.8202900309408578 0.11134844639434742 O
0.5541819390907262 0.46011725230540595 0.775607410838657 O
