System
1.0
4.936761785742929 -0.0 2.850240745923738
1.6455872619143097 4.654423647735246 2.850240745923738
-0.0 -0.0 5.7004814918474755
K Ta Nb O 
2 1 1 6 
direct
0.25000000000000006 0.25 0.25 K
0.75 0.75 0.7500000000000001 K
0.5000000000000001 0.5 0.5 Ta
0.0 0.0 0.0 Nb
0.7489459486139407 0.2510540513860592 0.25105405138605924 O
0.2510540513860592 0.7489459486139407 0.7489459486139408 O
0.2510540513860592 0.7489459486139407 0.2510540513860593 O
0.7489459486139407 0.2510540513860592 0.7489459486139408 O
0.2510540513860592 0.2510540513860592 0.7489459486139407 O
0.7489459486139407 0.7489459486139407 0.25105405138605935 O
