System
1.0
5.905458937358889 0.0421534101241154 0.0298071482938224
2.9892359793763643 5.093201680043014 0.0298071844417904
2.989235976729412 1.7258355516327757 4.791981176523932
Li Ti V O 
2 1 3 8 
direct
0.12584226806596438 0.1258422680660435 0.1258422680660492 Li
0.8741577319340356 0.8741577319339568 0.8741577319339505 Li
0.4999999999999999 0.5 0.49999999999999994 Ti
-6.824900032735194e-17 0.49999999999999994 0.5 V
0.5000000000000001 -1.409711155812345e-17 0.5 V
0.5 0.5 -1.564079563282527e-18 V
0.2608998212934318 0.2608998212860974 0.2608998212855665 O
0.2608822515082768 0.2608822515015063 0.7188475468165829 O
0.2608822515072031 0.7188475468176827 0.260882251501784 O
0.7188475468074409 0.2608822515110368 0.2608822515123877 O
0.2811524531925592 0.7391177484889632 0.7391177484876125 O
0.739117748492797 0.2811524531823175 0.7391177484982164 O
0.7391177484917235 0.7391177484984938 0.2811524531834172 O
0.739100178706568 0.7391001787139024 0.7391001787144336 O
