System
1.0
5.03587498341222 0.0844887521738281 -0.0352855445476221
-2.3664967961213024 5.518475491351237 0.0748130853846498
-0.0846975121008466 -0.1083202460019127 7.527643352778447
Li Co C O 
1 2 4 12 
direct
0.7961704915058462 0.19787421244956827 0.44492577349774864 Li
0.997484900472631 0.9974579800634547 0.00031446213504990176 Co
0.49711671857475165 0.508025763281951 0.4978401289384875 Co
0.7599426555614518 0.8762142446893572 0.7333443532470368 C
0.26370673678126616 0.36685652950228964 0.763967782718512 C
0.7288206671392822 0.6273267787270207 0.2304532116942308 C
0.2510047724032503 0.12283330462437599 0.26805813629683345 C
0.5296367206554695 0.4036321837353724 0.7366963597013038 O
-0.009212823761965604 0.11498788548858638 0.24618293169499933 O
0.14380650294498357 0.31216083257816585 0.9151769938832565 O
0.13414976814065274 0.4074126921898083 0.6224265805217573 O
0.8460097516732856 0.5682457894485601 0.37019048685068107 O
0.47101722289568687 0.6139627642881373 0.2585792860188241 O
0.017248985813178137 0.8843780045718682 0.7649341762235005 O
0.39501736517308106 0.18528638350094598 0.41622000814487015 O
0.6342112641666545 0.8314615898306483 0.578276078001227 O
0.6475363679453738 0.936438455653718 0.8679333819568594 O
0.8575326198758917 0.6816776937228413 0.0822365657961919 O
0.3525123120392269 0.057493911653332196 0.1320883026786277 O
