System
1.0
6.547990535648085 7.485184e-10 3.780484181435996
2.182663179960787 6.173505056849126 3.780484181435996
0.0 0.0 7.560968362871992
Nd Sn O 
4 4 14 
direct
0.5 0.5 0.4999999999999999 Nd
-6.678773207242266e-18 0.5 0.5 Nd
0.5 0.0 0.5 Nd
0.5 0.5 -5.954613278697957e-17 Nd
0.0 0.0 0.0 Sn
0.0 0.0 0.5 Sn
0.5 0.0 -2.9773066393489784e-17 Sn
-6.678773207242266e-18 0.5 -2.0174907778608706e-18 Sn
0.08415074601393648 0.6658492539860564 0.08415074601392943 O
0.6658492539860635 0.0841507460139436 0.6658492539860706 O
0.6658492539860635 0.0841507460139436 0.08415074601392226 O
0.625 0.625 0.6250000000000001 O
0.9158492539860635 0.3341507460139437 0.33415074601392225 O
0.3341507460139366 0.9158492539860564 0.33415074601392936 O
0.3341507460139081 0.3341507460139294 0.9158492539860849 O
0.915849253986092 0.9158492539860706 0.3341507460139152 O
0.9158492539860635 0.3341507460139437 0.9158492539860705 O
0.08415074601393648 0.6658492539860564 0.6658492539860777 O
0.3341507460139366 0.9158492539860564 0.9158492539860776 O
0.37500000000000006 0.375 0.3749999999999999 O
0.6658492539860921 0.6658492539860706 0.08415074601391508 O
0.0841507460139081 0.0841507460139294 0.6658492539860849 O
