System
1.0
4.26886693456022 2.4646309403701814 -0.0001133165641908
2.844053390221148 -1.640080450598178 4.734111269802411
2.842545399058347 -4.9234311365740435 -0.0001906992635421
Li Cr Fe O 
4 1 3 8 
direct
0.0 0.0 0.0 Li
4.546443115735761e-18 -1.9944917201677368e-22 0.5 Li
0.5070989734621719 -0.0010589376975224 0.2505312905561425 Li
0.49290102653782747 0.0010589376975225 0.7494687094438575 Li
-2.853313960959054e-17 0.4999990000000025 9.999999976054291e-07 Cr
-2.5941977718485508e-17 0.5 0.5000000000000001 Fe
0.5000025687936362 0.4999999558781785 0.25533946026890464 Fe
0.49999743120636403 0.5000000441218212 0.7446595397310979 Fe
0.24424744788324948 0.2734938118461895 0.36720587189410797 O
0.24424291084612548 0.27349303447248346 0.8592772633741924 O
0.7351673825835628 0.2763804840796327 0.1117973138190656 O
0.25478644788678567 0.7274714881378059 0.38627404919407127 O
0.26483361741643474 0.7236195159203679 0.8882026861809346 O
0.7557570891538746 0.7265079655275142 0.1407227366258077 O
0.7452125521132099 0.2725295118621914 0.6137249508059249 O
0.7557525521167503 0.7265061881538105 0.6327941281058924 O
