System
1.0
4.4176473414427395 -7.651590845730748 -0.0
4.4176473414427395 7.651590845730748 0.0
0.0 -0.0 4.827784810094856
Sc Te O 
6 3 18 
direct
3.9593915857348276e-14 0.29347418506676853 0.5 Sc
2.931010135754929e-14 0.6291510780254923 0.0 Sc
0.2934741850667686 3.956616028173265e-14 0.5 Sc
0.37084892197447833 0.37084892197447833 0.0 Sc
0.6291510780254924 2.925459020631803e-14 0.0 Sc
0.7065258149331914 0.7065258149331913 0.5 Sc
0.6666669999999968 0.33333300000000315 0.4978657320254942 Te
0.3333330000000032 0.6666669999999967 0.5021342679745059 Te
0.0 0.0 0.0 Te
0.5801964980019498 0.45712644173189726 0.2723995532274004 O
0.12072006145154061 0.21101065104165848 0.779281862998226 O
0.0902915895901075 0.8792799385485582 0.779281862998226 O
0.7889893489583492 0.9097084104097858 0.779281862998226 O
0.2110106510416585 0.12072006145154059 0.22071813700177412 O
0.8792799385485582 0.09029158959010744 0.22071813700177412 O
0.7677152388067462 0.22248173154005488 0.722805544352973 O
0.876929943730016 0.41980350199814176 0.2723995532274004 O
0.22248173154005504 0.7677152388067462 0.2771944556470272 O
0.4571264417318975 0.5801964980019498 0.7276004467725998 O
0.5452335072668067 0.7775182684600157 0.2771944556470272 O
0.12307005626995361 0.5428735582680412 0.7276004467725998 O
0.7775182684600158 0.5452335072668066 0.722805544352973 O
0.2322847611931381 0.4547664927332384 0.2771944556470272 O
0.41980350199814187 0.8769299437300159 0.7276004467725998 O
0.9097084104097859 0.7889893489583492 0.22071813700177412 O
0.5428735582680413 0.12307005626995361 0.2723995532274004 O
0.4547664927332384 0.2322847611931381 0.722805544352973 O
