System
1.0
4.677304636573499 -0.025715147216868 1.2389555466245343
0.2602519607343569 5.906838648731347 0.3380948533524586
-0.0349122141015686 -0.2133914093065555 6.7624209771669275
Al H C Cl O 
1 6 5 1 4 
direct
0.07465081986112962 0.6879394315690679 0.44023229737981573 Al
0.5174132163284345 0.2671846546887818 0.5749672793795855 H
0.8020163495625141 0.10153960842270982 0.6347530472876636 H
0.4235083046852107 0.8936635172998828 0.9083908905992985 H
0.1572739897039694 0.07637140938957522 0.8445464836029315 H
0.5127609841793225 0.39943693088723853 0.8989373701691744 H
0.6198612949978706 0.19448538017081682 0.056190631145737635 H
0.57633784955399 0.1010723284451315 0.6328487030761035 C
0.38223153428282175 0.0640521145307386 0.8502875555957383 C
0.5346092557874464 0.9282447735912845 0.48804120928566763 C
0.1943120597446775 0.324403301455553 0.15987966246211344 C
0.4416719992263933 0.24662323819357543 0.9882124513843615 C
0.015943660418774104 0.5556914806733154 0.7432128969554276 Cl
0.7286325053155422 0.7784297700956381 0.40917729478264503 O
0.25205520394758113 0.5150007504929928 0.2412027385275232 O
0.9678597880422816 0.22955841649882563 0.22031899817934594 O
0.2887991843620518 0.9261338935948735 0.44821749018686013 O
