System
1.0
5.046461427095565 0.0005602233474041 0.0014764240765157
0.0029560226895086 5.339136455834272 0.0452517392372608
0.0027252882964142 0.4880839703688528 7.338364836876786
Li Sb Te O 
1 1 3 12 
direct
0.0009169484947771002 0.4208107080547118 0.2126572560834051 Li
0.9974558516308288 0.002746719959424606 0.9978692924261205 Sb
0.4978295364714834 0.5100715534999581 0.9972263116036738 Te
0.0010951319878462 0.0019561900542932028 0.5074534219182564 Te
0.5023303729127591 0.5077662639181071 0.5058828202713515 Te
0.3086192404411243 0.20726438073162803 0.07685067582028009 O
0.18488502845429675 0.32565230201878537 0.43633942945554416 O
0.8235070415404805 0.33986468243182777 0.9495641619517744 O
0.35694977141858864 0.5039591113384232 0.7505843297532941 O
0.6386948348000502 0.5173663676763391 0.2549526874997863 O
0.8197756181051401 0.6856285425905769 0.5749480944821925 O
0.14314521762145677 0.005263366675484304 0.7477153844213263 O
0.6656402661630372 0.8289613901081652 0.9359591079608324 O
0.8728040078582232 0.029992600453797206 0.2596709968585652 O
0.6851372926739586 0.1918908131046693 0.5773443757666551 O
0.18420314667907592 0.6853663177055938 0.0757369453135839 O
0.3170096927468764 0.8210426896782191 0.4320457084133553 O
