System
1.0
6.097002461155536 -0.0002155182908634 0.0
-0.0053944755411769 7.80212959925927 0.0
0.0 0.0 8.324985252190961
Tb B O 
4 12 24 
direct
0.49153734648416947 0.24995382890829193 0.4990893349199435 Tb
0.5084626535158306 0.7500461710917081 0.5009106650800568 Tb
0.0084626535158304 0.7500461710917081 0.9990893349199433 Tb
0.9915373464841694 0.2499538289082919 0.0009106650800566 Tb
0.1189866965519057 0.5061048863335637 0.3152320847049797 B
0.1187716020985283 0.9948474269957471 0.6848169083226784 B
0.9889834205718278 0.249985263651354 0.4994740662336835 B
0.3812283979014717 0.005152573004253 0.1848169083226783 B
0.3810133034480944 0.493895113666429 0.8152320847049794 B
0.4889834205718278 0.24998526365135404 0.0005259337663166 B
0.6189866965519057 0.5061048863335637 0.18476791529502057 B
0.6187716020985283 0.994847426995747 0.8151830916773216 B
0.5110165794281721 0.7500147363486461 0.9994740662336831 B
0.011016579428172201 0.7500147363486462 0.5005259337663168 B
0.8810133034480944 0.493895113666429 0.6847679152950206 B
0.8812283979014717 0.005152573004253001 0.3151830916773217 B
0.06289372738686629 0.007109648319924 0.8399714931457464 O
0.4366600561560672 0.5052247526580694 0.6599626891408426 O
0.5633399438439323 0.4947752473419302 0.3400373108591578 O
0.8395967421310351 0.3331007180008658 0.6145572195968675 O
0.6604032578689649 0.6668992819991342 0.1145572195968677 O
0.0633399438439328 0.4947752473419302 0.1599626891408424 O
0.14237873351236088 0.3648322329605896 0.41644814838714456 O
0.8576212664876391 0.6351677670394107 0.5835518516128559 O
0.9366600561560677 0.5052247526580694 0.8400373108591573 O
0.4371062726131338 0.9928903516800763 0.3399714931457464 O
0.357797862489347 0.8649007039311749 0.0823900079392208 O
0.16017141047637157 0.8332958479911811 0.6160377803634911 O
0.3395967421310345 0.3331007180008658 0.8854427804031324 O
0.3398285895236284 0.16670415200881922 0.11603778036349109 O
0.8398285895236283 0.1667041520088192 0.38396221963650873 O
0.1604032578689654 0.6668992819991343 0.3854427804031321 O
0.6601714104763718 0.833295847991181 0.8839622196365088 O
0.6423787335123609 0.36483223296058964 0.0835518516128554 O
0.6422021375106528 0.1350992960688247 0.9176099920607792 O
0.3576212664876389 0.6351677670394106 0.916448148387144 O
0.8577978624893473 0.8649007039311749 0.417609992060779 O
0.9371062726131334 0.9928903516800763 0.1600285068542535 O
0.1422021375106528 0.13509929606882473 0.5823900079392208 O
0.5628937273868667 0.007109648319924 0.6600285068542536 O
