System
1.0
6.476967519144365 -0.0147992680301802 4e-16
-4.6637622843805735 4.49451316798323 4e-16
-0.0 -0.0 5.419255841584971
Rb Fe O 
2 2 4 
direct
0.6913202013639543 0.3086797986360455 0.75 Rb
0.3086797986360455 0.6913202013639543 0.25 Rb
0.9967289826173996 0.0032710173826002 0.75 Fe
0.0032710173826001436 0.9967289826173997 0.25 Fe
0.8963697774273746 0.1036302225726251 0.4960186456397692 O
0.8963697774273746 0.1036302225726251 0.0039813543602307 O
0.10363022257262504 0.8963697774273746 0.5039813543602305 O
0.10363022257262504 0.8963697774273746 0.9960186456397695 O
