System
1.0
5.062833763070196 -0.2031340102889705 0.0189022929901471
-2.2196332261528435 7.106019298765856 -1.4281424827442968
-0.0206686096570241 0.0064339078413037 5.640185123438207
Li Mn Co O 
7 4 1 12 
direct
0.33333320724707843 0.33333326525945306 0.8333337669776729 Li
0.4934683921229833 0.010847879200952799 0.7528210607257741 Li
0.17319804977412548 0.655818714512122 0.913846287903895 Li
0.8307896141950232 0.332268451876407 0.5867391762820607 Li
0.8358774266324616 0.3343984295379519 0.07992840327592553 Li
0.17951537394795058 0.664881100063251 0.41650908187195834 Li
0.48715080928775323 0.0017855192931276018 0.250158644032401 Li
0.0012145607610081002 0.0092394892734894 0.502120933858332 Mn
0.6654510912149407 0.657427088501499 0.16454658296268282 Mn
0.0010540368578243 0.0086146461055772 0.0022753472236600003 Mn
0.6656111072472009 0.6580517215454159 0.6643922737215416 Mn
0.33333293072955866 0.33333336992553825 0.33333380704697496 Co
0.06243030268427863 0.8447392103171567 0.7117793409557392 O
0.6042360720355251 0.8219273975129405 0.9548883229459542 O
0.3773741173537244 0.15913621537548797 0.5310136929512275 O
0.2892922397138312 0.5075303410954287 0.13565392134047752 O
0.7687787408367993 0.517701811507864 0.37970339294785926 O
0.8978873345355982 0.148964510233924 0.2869638374980427 O
0.057085198772612866 0.84060473365834 0.20940987863589866 O
0.6095808468093435 0.8260617470627922 0.45725743554575654 O
0.3762784497073124 0.15877668693323588 0.0484325392494412 O
0.2903876615628744 0.5078898620578481 0.618234995231099 O
0.7564399801870402 0.51401872540392 0.8782380540989836 O
0.9102261224498118 0.1526477504129613 0.7884295560499708 O
