System
1.0
0.0 5.800823648395127 -1.0205052232689589
4.70036297088556 0.0 0.0
0.0 -1.3347070292976886 -7.722524046318989
K Te O F 
2 2 2 6 
direct
0.2557103101271093 0.6541658077842103 0.6319520934796201 K
0.744289689872891 0.1541658077842097 0.3680479065203789 K
0.7508691944702255 0.1621445623189566 0.849740365698912 Te
0.2491308055297744 0.6621445623189566 0.15025963430108807 Te
0.5431926781098383 0.0746273247449563 0.6881760139563967 O
0.45680732189016054 0.5746273247449559 0.3118239860436031 O
0.5816058779940962 -0.0073374824494457 0.0605792183752835 F
0.1004764077822603 0.2794754288270601 0.1393481867063993 F
0.899523592217739 0.7794754288270587 0.8606518132936 F
0.004733573686769788 0.7039243587742531 0.3425445658928935 F
-0.004733573686769928 0.2039243587742539 0.6574554341071059 F
0.4183941220059033 0.4926625175505538 -0.0605792183752833 F
