System
1.0
4.123930508520443 -0.1869263584768761 -0.1297166587380109
1.1959627371294614 3.9520622581328917 -0.1365321829337899
1.179669028654936 0.8409864435399481 3.8726385036830218
H Br O 
3 1 1 
direct
0.6690468987811568 0.687614351109309 0.3501438506271997 H
0.6692250043938559 0.3548792913053053 0.6827436466485725 H
0.336255444571166 0.6877713785591196 0.6827754687449553 H
0.9746592552283239 0.9932570050263818 0.9885660270696868 Br
0.5207443970254954 0.5393339739998899 0.5344920069095849 O
