System
1.0
5.357904504040245 0.0021999268686852 -0.0014621884857526
-0.0024727581582575 5.662942032870689 -0.0006922097332968
-2.6757514423400974 -2.8317802008040927 7.079650431006079
Ca Al Cr O 
4 2 2 10 
direct
0.10224334689296981 0.5767624403423072 0.2153963638152244 Ca
0.38674398129089155 0.8612181054656631 0.784305597165381 Ca
0.8867204076243581 0.42323805376710194 0.7843055911343801 Ca
0.6022189530489405 0.13879054382949332 0.2154044987055869 Ca
0.20798955326316082 0.17274879293369164 0.4998493436092727 Al
0.7079725388241257 0.8272658875651682 0.4998503793815599 Al
0.5060831323549236 0.500003051175921 0.9998511660162943 Cr
0.006078579856287061 -2.933246646289444e-07 0.9998503686228499 Cr
0.7696517706129599 0.7727758612639561 0.0358648622421072 O
0.733779748232038 0.22735938415562001 0.963886960600511 O
0.8816415096499939 0.7850826494591384 0.7125590789331719 O
0.1690349492253444 0.21492738903995923 0.2871492603716732 O
0.8769793452216527 0.10305738456786569 0.4998534508543144 O
0.6689714656992484 0.5723771361880029 0.2871442089960542 O
0.37696460843737795 0.8969553281220597 0.4998457153243629 O
0.2696201671710475 0.7632101655360639 0.0358053604899193 O
0.3817268634100169 0.4276317581459833 0.712557585866012 O
0.23376207918467112 0.23665536176666305 0.9638442078713159 O
