System
1.0
2.20012288499e-05 5.056774610497489 -0.0006315344662082
5.279773249028332 2.33460451154e-05 2.8527995039e-06
-5.6925763106e-06 -0.0011107133706052 -8.844126811615933
Co Te Mo O 
2 2 2 12 
direct
0.750002036970227 7.875235504100001e-06 0.5280473528083972 Co
0.24999935120876668 0.5000062244630427 0.47195335845459424 Co
0.7500081433799879 0.5000093635616615 0.7499764172929786 Te
0.24999235288662355 8.461835486000002e-06 0.2500243910465027 Te
0.7499959331907139 0.5000091074559367 0.1919312915856253 Mo
0.2500034162058398 1.0136888012800001e-05 0.8080667255833213 Mo
0.014104625123031797 0.3234004506228694 0.2956918784172675 O
0.5247828201923578 0.677866224808071 0.6076188058946422 O
0.9012345388458355 0.715184936331941 0.0735351426420748 O
0.598764530234236 0.2848335131593341 0.0735367391435653 O
0.9752349254551039 0.3221374557464493 0.6076259109434499 O
0.9858940439671338 0.8233993969339124 0.7043083765271598 O
0.024764776812383694 0.8221381699580754 0.3923758633595141 O
0.40123693799274746 0.784832331351309 0.9264627491689961 O
0.47521690255073 0.1778664460237034 0.3923824760734766 O
0.5141267582080044 0.176611873348658 0.7043156988827891 O
0.09876515838404738 0.21518374567547804 0.9264636013137019 O
0.48587274839222727 0.6766122866005634 0.2956832208619443 O
