System
1.0
5.088431674279079 -0.078470588352109 -1.081413729291436
-1.6693793295770252 5.173450683458946 -0.5727109043887777
0.0460229223448758 0.0022178539559033 9.478132645364788
Li Al Mo As O 
3 1 2 2 14 
direct
0.18379519017965706 0.38400447646876557 0.8183986329314655 Li
0.8162048098203429 0.6159955235312343 0.18160136706853514 Li
1.2066961240182455e-17 0.49999999999999994 0.5 Li
0.49999999999999994 7.660962781958153e-19 2.5715666610125547e-18 Al
0.49701860394508074 0.8372407242555235 0.3546339406828908 Mo
0.5029813960549193 0.1627592757444759 0.6453660593171104 Mo
0.1552947885237499 0.22658212131918987 0.1767516043480985 As
0.8447052114762494 0.7734178786808104 0.8232483956519016 As
0.720210983628608 0.6678328922030023 0.41047676192308924 O
0.4412325669122966 0.13695842619399778 0.823474164083025 O
0.8449954362646414 0.4973659377424642 0.709295239308632 O
0.27978901637139203 0.33216710779699726 0.5895232380769106 O
0.8674947920813826 0.026036783224556197 0.7298066944167656 O
0.15500456373535867 0.5026340622575359 0.2907047606913682 O
0.44604591829912515 0.29624351309057045 0.1084512643979436 O
0.5587674330877048 0.8630415738060025 0.17652583591697452 O
0.32203548831513024 0.8352528615823315 0.5389085459919711 O
0.6779645116848689 0.16474713841766858 0.461091454008029 O
0.12458269740317521 0.8050113242127903 0.9633790888483741 O
0.5539540817008749 0.7037564869094298 0.8915487356020567 O
0.875417302596825 0.19498867578720996 0.0366209111516251 O
0.13250520791861695 0.9739632167754432 0.2701933055832339 O
