System
1.0
3.3637946446333427 3.0175686e-09 -0.887909091338631
-0.264061326583305 3.5563215384047537 -1.0003805397512722
-0.0065080914807865 -0.0188452210137392 6.791074836087074
Li Ce H O 
1 2 1 3 
direct
0.0 0.0 0.0 Li
0.3617012700687499 0.36170127006893504 0.7234025401374343 Ce
0.63829872993125 0.6382987299310648 0.2765974598625653 Ce
0.5 4.3518251298686674e-21 2.570756760161007e-18 H
8.96240209816713e-19 0.5 3.0649685763672432e-18 O
0.8240950712350716 0.824095071234706 0.648190142470226 O
0.17590492876492841 0.1759049287652941 0.3518098575297735 O
