System
1.0
4.20170479219313 -0.0 3e-16
7e-16 4.20170479219313 3e-16
-0.0 0.0 4.20170479219313
Sr Sb O 
1 1 3 
direct
0.0 0.0 0.0 Sr
0.5 0.5 0.5 Sb
0.5 0.5 0.0 O
0.5 0.0 0.5 O
0.0 0.5 0.5 O
