System
1.0
4.3974355464124555 0.0113780136767494 2.4801409537574837
1.4470709278211138 4.275220965759799 2.495604697879344
-0.0428059792011613 -0.0430897064027754 5.157090112933519
Ba Be Si O 
1 1 1 4 
direct
0.03383643307991999 0.9802661418402491 0.9802633730920189 Ba
0.26323041063728236 0.2528689349076807 0.25287058752528907 Be
0.5143559905363954 0.5015337596544027 0.5015327488287024 Si
0.4471389856609944 0.3765039773042956 0.878875625625131 O
0.8870549085020079 0.32286265842078665 0.32286641896051027 O
0.44714480416713903 0.8788756036668268 0.37650392461003696 O
0.2679384674162622 0.4360889242057609 0.4360883213583107 O
