System
1.0
-0.0587645471081899 2.9724023661522887 -5.029059584798682
1.5839116904501327 -2.5159199019898697 -5.029059594214167
-5.032244078821648 1.4838214422629443 -2.5775682933179835
Mn Ni O 
4 1 8 
direct
-1.5793864157774097e-17 0.5 0.5 Mn
0.0 0.0 0.0 Mn
0.5 -4.0739638416187944e-17 -1.743095789169363e-17 Mn
-6.682274658655347e-17 0.5 -3.1308745699508087e-17 Mn
0.49999999999999994 0.49999999999999994 -6.261749139901617e-17 Ni
0.4652302445225714 0.264307683790351 0.79907743925102 O
0.9862030831939725 0.27874038724401967 0.7784783404428228 O
0.5002620467778575 0.7646814236556226 0.7784783404644529 O
0.975974430539252 0.7514763980874796 0.7755019675280679 O
0.024025569460747777 0.2485236019125203 0.2244980324719324 O
0.49973795322214304 0.23531857634437686 0.2215216595355474 O
0.013796916806027784 0.7212596127559802 0.221521659557177 O
0.5347697554774288 0.7356923162096489 0.20092256074897966 O
