System
1.0
3.676744584157122 -0.1345600955447533 0.0133307759082556
-0.8268284542041808 4.368356746389503 -1.4841923259177021
0.4746356786451417 -0.0986548117541577 7.573698414699655
Cd H C O 
1 4 4 4 
direct
0.2505696187422404 0.7440266543845239 0.7264725162667238 Cd
0.9964507801489844 0.0337872236598951 0.252632651198519 H
0.5413386924353621 0.9040669205497461 0.16565977149100222 H
-0.040358582094003656 0.5839846312265703 0.28727001864855745 H
0.5045516353918563 0.4542544648107588 0.20026796494624782 H
0.5883009709207374 0.16061036317605934 0.45845149822771736 C
0.7282435533646994 0.1042933186662597 0.25890998593916015 C
0.7727615486995102 0.3837550605819 0.19400397592732593 C
0.9127575744633588 0.3274841808134363 0.9944745437531615 C
0.37282973274995973 0.9347571223126504 0.4905135551556867 O
0.6856456328765388 0.4306596533948303 0.5831106789822131 O
0.8154923942013452 0.0574613159787466 0.8697823292156335 O
0.1282044480993894 0.553390090444623 0.9624555102480513 O
