System
1.0
1.4011600038867404 0.8089601054548924 6.063791606207986
-1.4011600038867404 0.8089601054548924 6.063791606207986
0.0 -1.617920210820276 6.063791606208171
Rb B O 
1 1 2 
direct
0.0 0.0 0.0 Rb
0.4999997067096514 0.49999970670965144 0.4999997067096513 B
0.7855171290086919 0.785517129008692 0.7855171290086868 O
0.21448228441608225 0.21448228441608228 0.21448228441608735 O
