System
1.0
3.4183875411578386 -0.0005279883557747 5.117940309602474
1.5516240138809945 3.0459541329216826 5.117940309602472
-0.0008616556903158 -0.0005279884639788 6.1545657351985925
Ce Pr O 
1 1 2 
direct
0.0 0.0 0.0 Ce
0.4999999999999999 0.5 0.5000000000000002 Pr
0.25420213383247364 0.25420213383247364 0.2542021338324067 O
0.7457978661675263 0.7457978661675262 0.7457978661675935 O
