System
1.0
3.300585273416134 5.9510217e-09 0.0
-1.6502936251367955 5.294687738696575 0.0
-0.0 0.0 11.133254555989213
Sb O 
4 8 
direct
0.8666015138306806 0.7332050276615104 0.077860556686093 Sb
0.1333984861693193 0.2667949723384898 0.9221394433139072 Sb
0.8666015138306806 0.7332050276615104 0.42213944331390707 Sb
0.1333984861693193 0.2667949723384898 0.577860556686093 Sb
0.24358420828311386 0.48716741656612134 0.40755554178138775 O
0.7564157917168862 0.5128325834338787 0.5924444582186125 O
0.7564157917168862 0.5128325834338787 0.9075555417813875 O
0.24358420828311386 0.48716741656612134 0.09244445821861222 O
0.9148411726455119 0.8296833452913047 0.25 O
0.0851588273544877 0.1703166547086955 0.75 O
0.5 0.0 0.0 O
0.5 0.0 0.5 O
