System
1.0
3.000833790084669 -5.197597230226911 -0.0
3.000833790084669 5.197597230226911 0.0
-0.0 0.0 7.740425201915803
Tl V O 
4 2 7 
direct
0.6666669999999968 0.3333330000000032 0.9190128024039773 Tl
0.3333330000000032 0.6666669999999968 0.0809871975960225 Tl
0.3333330000000032 0.6666669999999968 0.5855029393336719 Tl
0.6666669999999968 0.3333330000000032 0.414497060666328 Tl
0.0 0.0 0.2653250828041269 V
0.0 0.0 0.7346749171958732 V
0.6869489699378439 0.8434744849726921 0.804084003777554 O
0.156525515027308 0.3130510300621563 0.804084003777554 O
0.1565255150348482 0.843474484965152 0.804084003777554 O
0.843474484965152 0.1565255150348482 0.19591599622244577 O
0.8434744849726921 0.6869489699378439 0.19591599622244577 O
0.31305103006215645 0.156525515027308 0.19591599622244577 O
0.0 0.0 0.49999999999999994 O
