System
1.0
4.695736331336849 0.2364268713538172 -0.7641833163919199
-1.2227085148136514 5.29566912746896 -1.4662882405254374
0.1955325880882241 0.0504259517018832 5.625686804423799
Er Si O 
2 2 7 
direct
3.371466492687896e-14 0.3066116030768509 0.6933883969231648 Er
-3.369143388526607e-14 0.6933883969231489 0.30661160307683505 Er
0.4127049393594194 0.220233090188782 0.2202330901887837 Si
0.5872950606405808 0.779766909811218 0.7797669098112162 Si
0.7788238257509392 0.9142066437226387 0.6114807459825288 O
0.22117517424905137 0.38851925401744064 0.0857933562773466 O
0.22117517424906327 0.0857933562773616 0.38851925401747117 O
0.7788238257509512 0.6114807459825595 0.9142066437226534 O
0.5 4.183818353123047e-18 -1.938099650128222e-18 O
0.28319751349669986 0.6162987107190574 0.6162987107190396 O
0.7168024865033004 0.3837012892809423 0.3837012892809599 O
