System
1.0
5.375397962713764 -0.5498102449870794 3.093726067235352
1.525385936936372 5.183666238976786 3.0937260645468427
-0.8187820252723618 -0.5498102576024928 6.147816638291901
Zn Sb O 
1 4 8 
direct
0.49999999999999994 0.5000009999999975 0.4999990000000025 Zn
0.5000009999999975 0.9999990000000026 0.5000009999999974 Sb
0.9999990000000025 0.5 0.5000009999999974 Sb
0.5 0.5000000000000001 4.653850287089524e-17 Sb
0.0 0.0 0.0 Sb
0.7416370756378509 0.28082239501266043 0.7416370756397825 O
0.2583619243602897 0.25836292436000463 0.7191776049829149 O
0.2583619243621516 0.7191786049873442 0.2583619243602198 O
0.7191766049869714 0.258362924362146 0.25836292436049674 O
0.2647288997425599 0.26472989974251265 0.2647288997456056 O
0.7352711002574402 0.735271100257485 0.7352711002543945 O
0.28082339501302855 0.7416380756378517 0.7416370756395031 O
0.7416380756397104 0.7416380756399928 0.2808223950170853 O
