System
1.0
3.7825844204334818 0.0044583432506334 0.0233527612351601
-0.0166540897588173 3.7773308647080257 0.6489777820068535
-0.0530852997789452 -0.8775957511412695 4.018924161421102
Ta O F 
1 2 1 
direct
0.06826538912270291 0.0146820877257507 -0.0395108933903737 Ta
0.0707851526150432 0.5097110888047904 0.024953528205537263 O
0.5683872855643008 0.9918334035785196 0.8816874708052052 O
0.0661441867273258 0.025161842964545007 0.4564495951067548 F
