System
1.0
5.137465708813727 0.1176466484562678 0.6288304657193241
2.5775659169047342 4.211218430837423 0.3356125778739749
0.828927158189838 0.0407487026484203 7.569978474451467
Li Cr P O 
2 2 2 8 
direct
0.3425517990682106 0.3156771774923208 0.8347272400462854 Li
0.6615126364064969 0.6672105079677048 0.3132144964504044 Li
0.0468569396441442 -0.0398587415805063 0.5331128571650908 Cr
-0.017034339838204408 -0.024771722402450097 -0.0207185996321477 Cr
0.29886772604552764 0.3683216832310955 0.2397158701873604 P
0.681837569968715 0.6597930503016172 0.7277735701367832 P
0.7670516083329776 0.2978890583984883 0.7633123278368635 O
0.06463758105576055 0.2811822219457613 0.3514881101498076 O
0.17362427298207514 0.5248479128866419 0.06251467680454999 O
0.6274890811219686 0.0625674847102372 0.1862820801154194 O
-0.008238902705016938 0.6497026323404179 0.7184225602959785 O
0.42820472651918656 0.879185014104816 0.8861152353313559 O
0.5495945281943679 0.7985790195006162 0.5567471189874525 O
0.3144757732037823 0.6093257011032281 0.3397954561247999 O
