System
1.0
5.9849570464849435 0.0013631529521101 -0.0081676101153187
0.0026008036538228 6.110795223111891 0.0936764728463165
-2.9859315771810633 -2.842573022961356 7.886059708297858
Ca Y Bi O 
4 2 2 10 
direct
0.3336909035140322 0.9532084281125972 0.6894004377252078 Ca
0.1013026354717896 0.6973248231048573 0.2413363922835884 Ca
0.6447161426400111 0.19732553266468317 0.241417460046382 Ca
0.8599818623419128 0.45325486123342246 0.6894085920277919 Ca
0.7195768518064931 0.8456713099749723 0.47136557747478175 Y
0.2560394660990655 0.34562237017718034 0.4714766595808987 Y
0.4699830091117241 0.5450417516786569 0.0184103864982574 Bi
0.0530836789566607 0.04516689211040279 0.0185009421622548 Bi
0.3688243283871396 0.13605664725789757 0.9657483938428081 O
0.9615181590834248 0.3355944426273821 0.2008331980150052 O
0.2991466224760244 0.03774810909821767 0.2572434233303855 O
0.5474577535934927 0.6580988209833446 0.601626625474935 O
0.02418935492725686 0.1468165089255149 0.547042154946822 O
0.5586066162942327 0.1582446009643038 0.6020974439989387 O
0.02712660433072706 0.6469235398073114 0.5473930892791463 O
0.10134480512173988 0.6362672865472653 0.9657484558554418 O
0.4627127210842131 0.5376956732175395 0.25700229392268736 O
0.7436844847600624 0.8354034015144516 0.2006744735346775 O
