System
1.0
6.827803022285095 0.003189690854974 -3.0296829624993333
-1.8075723823054777 6.584192534515826 -3.0296829619275725
0.0108210996188595 0.0141989042948083 7.539765830419274
K Nd W O 
2 2 4 16 
direct
0.31165658278111347 0.3116565827813452 0.47427574056937744 K
0.6883434172188866 0.688343417218655 0.5257242594306218 K
0.30485868075153155 0.6951413192493635 1.2163679530565833e-13 Nd
0.6951413192484688 0.30485868075063616 -1.2175520474981687e-13 Nd
0.8353572475051494 0.16464275248951604 0.4999999999987915 W
0.7986746895254608 0.7986746895242002 0.05411816382182855 W
0.20132531047453908 0.20132531047579966 0.9458818361781712 W
0.1646427524948505 0.8353572475104835 0.5000000000012084 W
0.04154933439992121 0.29736598362774536 0.06821145399065359 O
0.7026340163753588 0.9584506656064157 0.9317885460118772 O
0.4255508226756539 0.42555082267864847 0.10770420215447697 O
0.6544285946988181 0.9060421210249995 0.26212529252146227 O
0.6887827541877939 0.21868442529285168 0.6452025471066235 O
0.34557140530118235 0.09395787897500028 0.7378747074785373 O
0.9838529022736476 0.9838529022716889 0.6582327518401433 O
0.016147097726351697 0.016147097728310796 0.3417672481598567 O
0.0939578789729526 0.34557140530346236 0.7378747074786057 O
0.21868442529030213 0.6887827541819589 0.645202547104476 O
0.9584506656000786 0.7026340163722541 0.9317885460093458 O
0.9060421210270471 0.6544285946965375 0.26212529252139416 O
0.5744491773243453 0.5744491773213511 0.8922957978455236 O
0.311217245812206 0.7813155747071485 0.35479745289337655 O
0.29736598362464145 0.041549334393583895 0.06821145398812249 O
0.7813155747096975 0.3112172458180411 0.35479745289552383 O
