System
1.0
4.912577300952383 -0.3277455537296712 0.7434341280545992
0.4818910367573727 7.589628121677685 1.6078569156686067
-0.8752156749218046 0.9791335721673778 7.661278590426677
Mg Ge W O 
2 4 2 12 
direct
0.7499999999997817 0.38711133993178154 0.6128886600682357 Mg
0.2500000000002182 0.6128886600682185 0.3871113399317643 Mg
0.6883250411545709 0.4268313302164427 0.1973021584672384 Ge
0.8116749588457107 0.8026978415329993 0.5731686697832971 Ge
0.31167495884542884 0.5731686697835573 0.8026978415327615 Ge
0.18832504115428939 0.1973021584670007 0.4268313302167026 Ge
0.7500000000002731 0.895629025673596 0.10437097432638238 W
0.2499999999997267 0.10437097432640399 0.8956290256736178 W
0.541311429195323 0.9615167506599548 0.8578325493849124 O
0.9586885708047056 0.14216745061472844 0.038483249340402474 O
0.5555390512664913 0.6764161525783594 0.18213681447468696 O
0.9444609487326011 0.8178631855253806 0.3235838474216446 O
0.4444609487335086 0.3235838474216405 0.8178631855253131 O
0.014979674318175725 0.5696133156335387 0.6523287157336595 O
0.9850203256818242 0.43038668436646116 0.34767128426634114 O
0.5149796743181089 0.652328715733656 0.5696133156335472 O
0.041311429195294326 0.8578325493852715 0.9615167506595975 O
0.48502032568189113 0.3476712842663442 0.4303866843664528 O
0.055539051267398803 0.18213681447461952 0.6764161525783553 O
0.45868857080467695 0.0384832493400453 0.1421674506150878 O
