System
1.0
3.001489704926098 0.0 0.0
0.0 3.001489704926098 0.0
0.0 -0.0 3.9195048904249536
Al B O 
1 1 2 
direct
0.4999998050617123 0.4999998050617123 0.5673927932460708 Al
0.0 0.0 0.018906861527216004 B
0.0 0.0 0.3781079214871415 O
0.4999998050617123 0.4999998050617123 0.0455921233052686 O
