System
1.0
7.120145420677799 -0.3578028755396196 -0.2530036535115978
3.2502072102956214 5.629523942858179 1.06906151e-08
3.2502082663549334 1.8765076244242598 5.3075660405957334
Sb O 
4 8 
direct
0.2914501140959198 0.23618396197256908 0.2361839619633148 Sb
0.6333980931669774 0.10855680333507173 0.6290225517491838 Sb
0.6333980931619647 0.629022551750256 0.10855580333707021 Sb
0.6333980931646065 0.6290225517492744 0.6290225517501464 Sb
0.44657978227814843 0.3511344537514126 0.3511344537518649 O
0.44657978225655504 0.3511344537577799 0.851150310228035 O
0.44657978229753414 0.851150310209428 0.35113445374681956 O
0.7788621887104624 0.40704560376260307 0.40704560376377813 O
0.43716536688646496 0.8542772110336575 0.8542772110421862 O
0.7949789013255812 0.43382343990045447 0.8855988293860483 O
0.794978901328725 0.8855988293884491 0.43382343989609473 O
0.794978901327068 0.8855988293890515 0.8855988293854674 O
