System
1.0
2.89749273929846 -4.4510848039e-06 9.55501722258e-05
-1.448751195252705 2.509290103841101 -0.0001894385277136
0.0001254461848703 -0.0002483707885648 4.44715430161444
Fe H O 
1 1 2 
direct
0.9999582092006428 2.264391683400002e-05 0.9958139656723438 Fe
0.666623244201467 0.33323761690188175 0.5398545326820372 H
0.33329224751447484 0.6667304226130487 0.1925441832322499 O
0.6666252990834172 0.3333093165682297 0.7616483184133661 O
