System
1.0
4.446758617716152 -1.2505303533231884 -0.7617736523448935
5.905528836215969 4.222992291551574 -1.186527518102725
5.905525566048565 2.546778203954661 1.5569048950785063
Mn Te O 
1 1 4 
direct
0.4999945312833353 0.5000012471473232 0.5000005424619524 Mn
0.4999982783612761 -1.8688209135336203e-06 0.5000041942933542 Te
0.13432539559769402 8.564708641532085e-05 0.1826910892073734 O
0.49984497970962044 0.5000116111443048 0.21094470697633333 O
0.8656896591244996 -8.510693746600514e-05 0.8173020275827352 O
0.5001461559235773 0.4999894703803418 0.7890584394782554 O
