System
1.0
5.194959637495419 -0.0273103297223469 1.9264499218223898
1.3320434722019476 5.021355561746274 1.9264499218223894
0.0335825523865558 0.0256952207324824 7.466709682501583
V O F 
6 7 5 
direct
0.666637294390978 0.6666372943909779 0.832442780888934 V
0.3346877220162864 0.3346877220162865 0.6530361958071078 V
0.653941935481463 0.653941935481463 0.32952095287424976 V
0.34137869656299 0.34137869656298997 0.18424984360857039 V
0.9981166652018028 0.9981166652018029 0.4979741611191785 V
0.0027299185849121 0.0027299185849121 0.0014328323507932998 V
0.2995678427975926 0.7023818408110508 0.0007736547165506456 O
0.37216337266750366 0.9679821650470984 0.331686186015597 O
0.032440761801317684 0.6286462011184205 0.6689271601464997 O
0.43402732075409 0.4340273207540899 0.36957214551083706 O
0.9679821650470983 0.37216337266750377 0.3316861860155971 O
0.6286462011184206 0.03244076180131769 0.6689271601464997 O
0.7023818408110508 0.2995678427975925 0.0007736547165505602 O
0.09784633661650288 0.09784633661650288 0.6989018231073473 F
0.23544617586421424 0.23544617586421418 0.9659425431899942 F
0.5661953291899148 0.5661953291899148 0.6329486966346544 F
0.8984442696106 0.8984442696106 0.3006082634173771 F
0.7673661514832544 0.7673661514832544 0.030593759733658722 F
