System
1.0
3.0698504832749784 3.1583462184122335 -1.0739176363494478
-3.0698504832749784 3.1583462184122335 1.0739176363494478
-0.0101842148256622 0.0 5.872523020362805
K P H S O 
1 1 2 1 3 
direct
0.15652535402060028 0.8434746459793996 0.3927150464859104 K
0.6547223534573129 0.3452776465426873 0.8898546611691153 P
0.16739455097441364 0.2040201384297525 0.8073476989400924 H
0.7959798615702482 0.8326054490255869 0.8073476989400925 H
0.6081897752178536 0.3918102247821464 0.20632820292696497 S
0.8967111958812273 0.10328880411877285 0.9054343807780706 O
0.3467375625603751 0.2604306536820274 0.7244906553798753 O
0.7395693463179732 0.6532624374396245 0.7244906553798753 O
