System
1.0
6.230608289156167 -1.2876896e-09 3.5972429707573954
2.0768697589954463 5.874274126582352 3.597242970757396
4.9752498e-09 3.518033e-09 7.194486924369712
Y Ru O 
4 4 14 
direct
0.5 0.0 0.5 Y
-2.021847278587829e-17 0.5 0.5 Y
0.49999999999999994 0.5 -2.6354286300746724e-17 Y
0.49999999999999994 0.5 0.49999999999999994 Y
-2.021847278587829e-17 0.5 -1.3177143150373362e-17 Ru
0.0 0.0 0.49999999999999994 Ru
0.0 0.0 0.0 Ru
0.5 0.0 -1.3177143150373362e-17 Ru
0.08450025528854029 0.6654997447112496 0.08450025528878252 O
0.6654997447114597 0.08450025528875062 0.6654997447112174 O
0.6654997447113354 0.0845002552886264 0.08450025528869629 O
0.6249999999999999 0.625 0.625 O
0.9154997447113354 0.3345002552886264 0.33450025528869626 O
0.33450025528854044 0.9154997447112497 0.33450025528878247 O
0.3345002552886239 0.3345002552887961 0.9154997447111656 O
0.9154997447113761 0.9154997447112039 0.334500255288834 O
0.9154997447114597 0.3345002552887506 0.9154997447112175 O
0.08450025528866457 0.6654997447113735 0.6654997447113036 O
0.33450025528866445 0.9154997447113735 0.9154997447113036 O
0.375 0.37500000000000006 0.37499999999999994 O
0.6654997447113761 0.6654997447112039 0.08450025528883419 O
0.0845002552886239 0.08450025528879611 0.6654997447111658 O
