System
1.0
3.731227406770389 -0.0 2e-16
6e-16 3.731227406770389 2e-16
-0.0 0.0 3.731227406770389
Tb Ni O 
1 1 3 
direct
0.0 0.0 0.0 Tb
0.5 0.5 0.5 Ni
0.5 0.5 0.0 O
0.5 0.0 0.5 O
0.0 0.5 0.5 O
