System
1.0
5.758471371309418 -0.0052386181353889 -0.0037046650651126
2.8746983688814987 4.98960167676198 -0.0037046719898598
2.8746983796215364 1.6597081465024508 4.705476595113233
Li Mn V O 
2 3 1 8 
direct
0.12294131348616219 0.12294131348535821 0.12294131348547849 Li
0.8770586865138378 0.877058686514642 0.8770586865145219 Li
9.141625468674501e-17 0.49999999999999994 0.49999999999999994 Mn
0.5 4.145209681243922e-17 0.49999999999999994 Mn
0.49999999999999994 0.5 -6.028374889342061e-20 Mn
0.5000000000000001 0.5 0.5 V
0.26244520502947016 0.2624452050430318 0.262445205041003 O
0.2580208813850998 0.25802088139321283 0.7159952941887875 O
0.25802088140149837 0.7159952941712947 0.2580208813929131 O
0.7159952941847185 0.2580208814034998 0.2580208813868021 O
0.2840047058152815 0.7419791185964999 0.741979118613198 O
0.741979118598502 0.28400470582870574 0.7419791186070868 O
0.7419791186149 0.741979118606787 0.28400470581121307 O
0.7375547949705301 0.7375547949569683 0.7375547949589972 O
