System
1.0
-1.6935964525150484 2.813317258455209 2.2924325863809627
1.6935964525150484 -2.813317258455209 2.2924325863809627
1.6935964525150484 2.813317258455209 -2.2924325863809627
Cu N O 
1 1 2 
direct
0.041555419768064004 0.041555419768064004 8.127715598020774e-19 Cu
0.6246500764951304 0.6246500764951304 6.174926272361925e-17 N
0.6566850429203172 0.4668979079113856 0.1897871350089317 O
0.27711108459183026 0.46689792859737345 0.8102140174641504 O
