System
1.0
-2.54245137854e-05 4.076080921737462 4.076068662360053
4.076127586412701 -7.90654956174e-05 4.076123300541015
4.076012652364045 4.076020626875815 3.48706791105e-05
Mg Co O 
2 4 8 
direct
0.12499896330468895 0.12499526760602171 0.12500210008677262 Mg
0.8750020366953088 0.8750037323939808 0.874997899913228 Mg
0.5000000000000001 0.5 7.269552027241896e-17 Co
0.5000000000000001 -4.1534373766497363e-17 0.5000000000000002 Co
2.0881930466513977e-16 0.49999999999999994 0.5000000000000001 Co
0.5000000000000002 0.5000000000000001 0.5 Co
0.2641444379782261 0.2641494000765428 0.2641412436828667 O
0.7075650011994431 0.26415038204173497 0.2641396606230623 O
0.7358558118293355 0.7358502313630342 0.2924409636043704 O
0.7358550230666493 0.2924294532006272 0.7358598829630351 O
0.2641449769333511 0.7075705467993728 0.2641401170369653 O
0.26414418817066493 0.26415076863696335 0.7075590363956298 O
0.29243599880056187 0.7358496179582653 0.735860339376938 O
0.735855562021774 0.7358505999234575 0.7358597563171311 O
