System
1.0
-1.5566953450790928 0.0 8.111106848182418
-5.5897765272253235 2.7220040883784824 4.732708588280524
-5.5897765272253235 -2.7220040883784824 4.732708588280524
Cu I N 
1 4 4 
direct
0.5000000000000001 -1.0020719666564384e-17 -1.0020719666564384e-17 Cu
0.8985687193478855 0.24838745958921168 0.24838745958921168 I
0.10143128065211479 0.7516125404107886 0.7516125404107886 I
0.7249574585051839 0.6473780994784549 0.6473780994784549 I
0.2750425414948163 0.3526219005215453 0.3526219005215453 I
0.7782589839067905 0.6616433661373283 0.12396170846800653 N
0.7782589839067905 0.12396170846800653 0.6616433661373283 N
0.2217410160932096 0.33835663386267184 0.8760382915319934 N
0.2217410160932096 0.8760382915319934 0.33835663386267184 N
