System
1.0
1.5352605605579306 -2.6591485661465866 -0.0
1.5352605605579306 2.6591485661465866 0.0
-0.0 -0.0 9.228694463542327
Ni C N 
2 2 4 
direct
0.0 0.0 0.5 Ni
0.0 0.0 0.0 Ni
0.6666669999999968 0.3333330000000032 0.25 C
0.33333300000000315 0.6666669999999968 0.75 C
0.6666669999999968 0.3333330000000032 0.3843118802926698 N
0.33333300000000315 0.6666669999999968 0.61568811970733 N
0.33333300000000315 0.6666669999999968 0.8843118802926699 N
0.6666669999999968 0.3333330000000032 0.1156881197073301 N
