System
1.0
3.797093757092443 0.0022095772715881 -3.441598648388781
-0.7445949991592843 3.7233726874446917 -3.4415986483887817
-0.001810383291595 -0.0022095772736929 5.124696964625785
Ti N 
3 4 
direct
0.25000000000000006 0.7500000000000001 0.5000000000000001 Ti
0.49999999999999994 0.5 -2.7162102728354177e-17 Ti
0.7499999999999999 0.25 0.5 Ti
1.4649439005370537e-17 0.5 0.5000000000000001 N
0.260461932522244 0.260461932522244 4.087316335451862e-17 N
0.49999999999999994 2.0520534397277026e-20 0.5 N
0.7395380674777559 0.7395380674777559 7.825405708023104e-17 N
