System
1.0
-0.0 -0.0 -5.102931121142801
1.63746e-09 -5.551040540809637 -0.0
-4.801013046274043 2.775519773551737 0.0
Li Ge N 
2 4 6 
direct
0.4955267403193377 0.34146487095554917 3.61e-14 Li
0.995526740319345 0.6585351290444504 -3.61e-14 Li
0.49191138643773924 0.6691892513370888 0.6742722390291715 Ge
0.49191138643773924 0.9949170123073916 0.3257277609703628 Ge
0.991911386437739 0.3308107486629109 0.3257277609708287 Ge
0.991911386437739 0.005082987692607912 0.6742722390296373 Ge
0.12200670302384149 0.6649578761827689 0.6305547454781768 N
0.12200670302384149 0.034403130704099796 0.3694452545214494 N
0.6220067030238412 0.3350421238172309 0.369445254521823 N
0.6220067030238412 0.9655968692958999 0.6305547454785505 N
0.09763708075750589 0.3036781335928127 4.0130000000000007e-13 N
0.5976370807575059 0.6963218664071871 -4.0130000000000007e-13 N
