System
1.0
10.326352533696712 -0.0478495498435304 3.816966770449901
0.5868410606125086 3.3840254620640273 -2.01345509e-07
0.178174907922327 -0.0308982246891072 7.826871685786019
Zn Fe N 
8 3 8 
direct
0.11040337964804137 0.9447988101800212 0.6993201245663557 Zn
0.8895966203519583 0.0552011898199787 0.3006798754336442 Zn
0.638729198365942 0.6806359058156394 0.5112781003444763 Zn
0.3612708016340574 0.3193640941843601 0.4887218996555234 Zn
0.8365691428713335 0.5817149285635963 0.8880327552446722 Zn
0.16343085712866667 0.41828507143640326 0.11196724475532793 Zn
0.6000767932044833 0.1999616033979918 0.8522124046780535 Zn
0.3999232067955169 0.8000383966020082 0.14778759532194652 Zn
0.6325480660385772 0.183725971978222 0.19894047221968214 Fe
0.3674519339614227 0.816274028021778 0.8010595277803174 Fe
-3.1606347833891637e-18 0.5 0.5 Fe
0.26047175377057635 0.8697641181124832 0.039801310787642215 N
0.7395282462294234 0.1302358818875161 0.9601986892123574 N
0.3083860394291684 0.8458069752844635 0.6134891480472409 N
0.6916139605708316 0.1541930247155361 0.3865108519527595 N
0.5399677547181594 0.7300161226421897 0.7849565089322792 N
0.46003224528184067 0.2699838773578102 0.21504349106772028 N
0.021902200769972704 0.4890493996204042 0.7251542152893565 N
0.9780977992300274 0.5109506003795956 0.27484578471064336 N
