System
1.0
3.051620504550149 0.0 -0.4220714807068309
0.0 3.7106295240091214 0.0
-0.7303407064624464 0.0 5.71627954022038
Mg N 
2 1 
direct
-0.14700409719499694 0.0 -0.0986070725896818 Mg
0.0803363723616304 0.0 0.36527097586547336 Mg
0.46666747445233736 0.0 0.133336057169643 N
