System
1.0
5.1994313016578575 0.0 0.0
-2.5997156508289287 5.160135927966381 0.0
0.0 -0.0 11.263752469764649
Ca P N 
8 4 12 
direct
0.051480670127671296 0.1029613402553426 0.8577225602784203 Ca
0.4485193298723287 0.8970386597446575 0.3577225602784206 Ca
0.5514806701276717 0.1029613402553426 0.6422774397215797 Ca
0.3629986448821738 0.7259972997643414 0.9259159491983904 Ca
0.8629986448821739 0.7259972997643414 0.5740840508016096 Ca
0.1370013551178262 0.2740027002356587 0.4259159491983905 Ca
0.637001355117826 0.2740027002356587 0.07408405080160979 Ca
0.9485193298723282 0.8970386597446575 0.1422774397215795 Ca
0.7448749870483857 0.48974998409677223 0.8350016080818311 P
0.7551250129516143 0.5102500159032278 0.3350016080818311 P
0.2551250129516143 0.5102500159032278 0.1649983919181688 P
0.24487498704838565 0.48974998409677223 0.6649983919181689 P
0.5407840515128487 0.5815681030256973 0.7499999999999999 N
0.16002519943368376 0.3200503988673676 0.0493495486619391 N
0.839974800566316 0.6799496011326324 0.9506504513380611 N
0.3399748005663162 0.6799496011326324 0.5493495486619389 N
0.9114084264657041 0.822816852931408 0.35919883974583183 N
0.41140842646570397 0.822816852931408 0.1408011602541681 N
0.5885915735342958 0.177183147068592 0.8591988397458319 N
0.0407840515128486 0.5815681030256973 0.7499999999999999 N
0.45921594848715136 0.41843189697430266 0.25 N
0.9592159484871513 0.41843189697430266 0.25 N
0.6600251994336838 0.3200503988673676 0.4506504513380608 N
0.08859157353429599 0.177183147068592 0.640801160254168 N
