System
1.0
-1.3969010858366309 4.972338550427792 -2.6860297632063745
3.738541342650066 4.933581446421779 0.8800895609955023
5.16480178836519 -2.78621035662e-05 -2.686064824151188
Mn O 
6 8 
direct
0.12500219469891657 0.2499966106021278 0.37499304188994653 Mn
0.8749978053010833 0.7500033893978724 0.6250069581100535 Mn
0.49999999999999994 0.49999999999999994 0.5 Mn
0.0 0.0 0.0 Mn
0.5 -7.09651030961428e-18 1.2542095580781586e-17 Mn
0.49999999999999994 0.5 -4.070541334329772e-19 Mn
0.27105982077190804 0.5101782053190255 0.24491288772790504 O
0.25510288370695317 0.9897942325882254 0.22895752306140305 O
0.7449183763729408 0.01016224725713031 0.21877381520745132 O
0.7448971162930462 0.01020576741177465 0.7710424769385971 O
0.28123802608901216 0.4898217946811426 0.755087112270585 O
0.7289401792280917 0.4898217946809744 0.755087112272095 O
0.7187619739109877 0.5101782053188575 0.2449128877294151 O
0.25508162362705966 0.9898377527428698 0.7812261847925488 O
