System
1.0
5.971136787106838 0.0037614796207322 0.1206621473921043
-2.9669023678943 5.181889522023095 0.1206621473921042
-0.0343615401216784 -0.0593119344517436 14.895154640502497
Ba Bi Ru Ir O 
6 2 2 2 18 
direct
0.34010800278885417 0.6737985913246111 0.4058032389322869 Ba
0.32572840856834345 0.6568313345460334 0.0964028464864218 Ba
0.6568313345460334 0.3257284085683434 0.5964028464864217 Ba
0.6737985913246111 0.34010800278885406 0.9058032389322873 Ba
0.9942546746591902 0.006292258732682 0.24994497702777274 Ba
0.006292258732682083 0.99425467465919 0.749944977027773 Ba
0.9986155994956033 0.9994054481683592 0.5006614792971473 Bi
0.9994054481683592 0.9986155994956033 0.0006614792971478013 Bi
0.6814524155608163 0.3509657846055572 0.33515349489470864 Ru
0.3509657846055572 0.6814524155608163 0.8351534948947077 Ru
0.649404098851901 0.31921765483979897 0.1662812478863171 Ir
0.3192176548397991 0.649404098851901 0.6662812478863172 Ir
0.5041643163956623 0.0267401756643425 0.2627923412322157 O
0.9749111502865763 0.4975013207510089 0.23997697138409224 O
0.49475486261460144 0.5086865109415342 0.7514453390668133 O
0.508686510941534 0.4947548626146014 0.251445339066813 O
0.2130820498123365 0.866211665345051 0.9029872930640855 O
0.13219147150889143 0.7876530833846478 0.593966279571989 O
0.787653083384648 0.1321914715088915 0.09396627957198861 O
0.8662116653450509 0.2130820498123365 0.402987293064085 O
0.5979484310624856 0.7865851291458652 0.5704300302047837 O
0.13456336220334109 0.3188360632853213 0.6010440893987986 O
0.3188360632853213 0.13456336220334109 0.1010440893987988 O
0.8619364211607407 0.6773050199527051 0.3970337479386322 O
0.2168898183989403 0.4039638759441867 0.926075623613924 O
0.02674017566434248 0.5041643163956623 0.7627923412322155 O
0.7865851291458652 0.5979484310624856 0.0704300302047832 O
0.4039638759441867 0.21688981839894028 0.4260756236139244 O
0.6773050199527051 0.8619364211607405 0.8970337479386324 O
0.4975013207510089 0.9749111502865763 0.7399769713840929 O
