System
1.0
4.9378585854865955 -0.045664351964883 -0.0546096542581471
1.8697670802777575 4.5703171765217085 -0.0543920800422289
0.3109050074279277 0.2063792772305812 6.290802600342156
Cr Cu O 
3 1 8 
direct
0.35506707007039956 0.3550645648289428 0.7370107973408022 Cr
0.6449349301852972 0.6449347079510827 0.2629855134813404 Cr
-5.37730470606554e-07 1.183186310296615e-06 0.5000031007615685 Cr
-4.7131672872e-06 5.8509346815e-06 1.3578544330300002e-05 Cu
0.7841196829533698 0.2697366427402311 0.2722445427455815 O
0.24047232624420437 0.24045482938140514 0.956816174418953 O
0.2697426606146708 0.784120331623931 0.2722455286592942 O
0.7683965146340638 0.7683943069075198 0.4659974478379268 O
0.7302573746938626 0.21588674280517053 0.7277551256379658 O
0.2316064245893379 0.2316086039461165 0.5339918326337374 O
0.21587081844810557 0.7302618872308008 0.7277595279837776 O
0.7595374484644453 0.759529348463811 0.043176829954717 O
