System
1.0
4.310077444297372 -0.007276892889118 0.0211688890095637
-2.1508337633856236 3.7026878708634237 0.3889864854649661
-0.025201803977187 -0.5777508668321324 5.003442174768342
Ag Cl O 
1 1 2 
direct
0.9086908616026584 0.5688080975549001 0.0957159944429488 Ag
0.5784607842570973 0.9082584382174232 0.0174876147073319 Cl
0.10064089155528612 -0.047572497281486305 0.5315713897077942 O
0.26721746258495854 0.285825961509167 0.5140750011419334 O
