System
1.0
5.153546410155601 -0.0130826128059213 -2.566766240677622
1.9572628104351302 6.22536641327265 0.6699870544705732
0.0465278720433103 0.0299194292901605 6.549612891143531
Li V O F 
8 4 8 4 
direct
0.9999997730006301 0.666670707010618 0.3333351783887181 Li
0.4999995718214238 0.6666707376910131 0.3333347589475115 Li
0.25000111246827006 0.6666700184355013 0.8333356394176197 Li
0.7500016421071152 0.6666708373116103 0.833335935625378 Li
0.2430169251158592 -0.0009675641984207002 0.48544741277396986 Li
0.743015932583663 -0.0009679979554240003 0.4854463518163715 Li
0.2569845153210923 0.33430972477432247 0.1812242193256292 Li
0.7569832473392851 0.3343092639129635 0.18122440077788715 Li
0.49828389917533106 0.0157807894926058 0.004427330277408994 V
0.5017147900613976 0.31756226679952615 0.6622419483929504 V
0.9982800974840412 0.015778111625827495 0.004428506320078102 V
0.0017206828768683725 0.3175650864813813 0.6622405618078553 V
0.8710607003099591 0.9910627101987106 0.23763594496020374 O
0.37106061824948333 0.991062559049424 0.23763772192587848 O
0.1289381924887483 0.3422812770867377 0.4290325382056506 O
0.6289378909123259 0.34228149668873253 0.42902910622408974 O
0.6291899532445211 0.00041832901438869916 0.7585615817733404 O
0.1291898896272419 0.0004165033843533993 0.7585616420671437 O
0.37080860240570285 0.33292682016666375 0.9081064600307442 O
0.870809322621262 0.3329288746099663 0.9081073274298701 O
0.37890376898646166 0.6605989097574576 0.588089554060365 F
0.12109677796425729 0.6727457825444112 0.07857981004518919 F
0.6210967975430061 0.6727446628641448 0.07858033627160686 F
0.878903296292066 0.6605984265868168 0.5880893998012059 F
