System
1.0
5.468622464301132 4.376663571479447 -4.382861672939679
-5.468622464301132 4.376663571479447 4.382861672939679
0.0831702715613683 0.0 6.597838727188054
Cu H I N 
1 12 4 4 
direct
0.5 0.5 0.0 Cu
0.71931746354304 0.7913656786667324 0.145011001220024 H
0.2086343213332683 0.2806825364569605 0.14501100122002414 H
0.7913656786667324 0.71931746354304 0.8549889987799755 H
0.555671841989589 0.8761983661618543 0.8511519744420875 H
0.12380163383814556 0.4443281580104114 0.8511519744420875 H
0.2806825364569605 0.2086343213332683 0.8549889987799756 H
0.8761983661618543 0.555671841989589 0.14884802555791332 H
0.4951567611469969 0.7636265659500028 0.10497339400295191 H
0.23637343404999708 0.5048432388530028 0.10497339400295186 H
0.5048432388530029 0.2363734340499971 0.8950266059970481 H
0.7636265659500029 0.4951567611469969 0.8950266059970481 H
0.4443281580104114 0.12380163383814559 0.14884802555791335 H
0.9073815992677706 0.09261840073222927 0.5352957813504299 I
0.0926184007322292 0.9073815992677705 0.4647042186495703 I
0.6992885390636807 0.30071146093631956 0.6198697803188897 I
0.30071146093631945 0.6992885390636806 0.38013021968110994 I
0.23842767190067446 0.4253040802514552 0.02729078383632721 N
0.7615723280993248 0.5746959197485446 0.9727092161636727 N
0.4253040802514552 0.23842767190067451 0.9727092161636727 N
0.5746959197485446 0.7615723280993251 0.027290783836327173 N
