System
1.0
4.0684147270312385 0.0 0.0
0.0 4.0684147270312385 0.0
-0.0 0.0 8.288876068443697
Sr Zr N 
2 2 4 
direct
0.75 0.75 0.1429992291866116 Sr
0.25 0.25 0.8570007708133884 Sr
0.75 0.75 0.5949098487165084 Zr
0.25 0.25 0.4050901512834915 Zr
0.75 0.25 0.5 N
0.25 0.75 0.5 N
0.75 0.75 0.8383784748229292 N
0.25 0.25 0.16162152517707068 N
