System
1.0
5.554407277382641 1.0728276823377725 0.0
1.3914701262840266 2.1945185597594326 0.0
0.0 0.0 3.4845549589717315
Li B N 
1 1 1 
direct
-0.22324904402516982 0.0677406106240155 0.0 Li
0.32723465234696264 0.23981752516681554 0.0 B
0.20637832487327773 -0.07967074271384052 0.0 N
