System
1.0
3.018295341892047 -0.0003611907586893 4.527981414065306
1.3705589738784418 2.689177383600284 4.527981414065305
-0.0005895582706554 -0.0003611908053238 5.441757003446751
Hf Ti C N 
1 1 1 1 
direct
0.0003186027137563 0.00031860271375629996 0.000318602713782 Hf
0.4984296642753828 0.4984296642753828 0.4984296642754045 Ti
0.7540017854159258 0.7540017854159258 0.7540017854158949 C
0.24724894759493773 0.2472489475949377 0.24724894759492094 N
