System
1.0
5.803673528907129 0.0267515739518013 3.328454014813327
1.9601435392872757 5.462324262858404 3.328055138853649
0.000364548940468 -0.0005149712518872 6.656508176857787
Li I N 
6 3 1 
direct
0.27614845199949 0.723851548003084 0.12972142112460722 Li
0.21371333040329832 0.1889020041361571 0.8111518532985263 Li
0.12970112098582806 0.8702988790168322 0.7483743794045254 Li
0.8947845216464899 0.10521547834880421 0.27617315888659344 Li
0.7484448371408958 0.2515551628577727 0.8948164337913715 Li
0.8110979958648428 0.7862866695965016 0.21376618783734871 Li
0.2621980220449064 0.23777738662399636 0.26217861106907003 I
0.5122097736628775 0.4877902263357944 0.5121746914713663 I
0.762222613375584 0.7378019779567664 0.7621530197381636 I
0.01227933287578621 0.9877206671242853 0.012289243378428506 N
