System
1.0
5.360715608046021 8.66749e-11 -1.2260254578360688
-0.2803986711184949 5.353377440712667 -1.2260254576713419
-0.0028988467906917 -0.0030539906135049 12.320029205633142
Si N O 
16 16 8 
direct
0.0 0.0 0.0 Si
0.49999999999999994 4.8149750080494313e-20 0.5 Si
0.49999999999999994 7.031425860984896e-22 -2.0335778196050058e-18 Si
0.9561117709915076 0.2061117709914548 0.4122225419829196 Si
0.7061117709915075 0.4561117709914546 0.9122225419829195 Si
0.043888229008492596 0.7938882290085449 0.5877774580170807 Si
0.29388822900849265 0.543888229008545 0.08777745801708062 Si
0.33188971247579924 0.3321032728372251 0.664206545674448 Si
0.8321032728371586 0.8318897124758342 0.1642065456744362 Si
0.832103272837182 0.3323178331986177 0.1642065456744395 Si
0.1676821668014682 0.6678967271627633 0.3357934543255724 Si
0.6681102875242005 0.6678967271627747 0.33579345432555197 Si
0.167896727162818 0.6676821668013824 0.8357934543255606 Si
0.16789672716284126 0.16811028752416576 0.8357934543255638 Si
0.8323178331985316 0.33210327283723645 0.6642065456744277 Si
0.4999999999999999 0.5 0.5000000000000001 Si
0.2624262596129153 0.7493957463286283 0.4987904926572444 N
0.08720126360388938 0.5738795264171136 0.6744025272077605 N
0.24939574632866648 0.7624262596129017 0.998790492657254 N
0.39947699920935303 0.4127987363961241 0.8255974727922417 N
0.24939574632864814 0.236365233044339 0.9987904926572514 N
0.26363476695560756 0.25060425367138045 0.5012095073427393 N
0.7363652330443923 0.7493957463286195 0.4987904926572607 N
0.7506042536713515 0.7636347669556609 0.0012095073427487856 N
0.9127987363961046 0.8994769992093646 0.32559747279223866 N
0.9127987363961105 0.4261204735828864 0.32559747279223933 N
0.0738795264171376 0.5872012636038733 0.17440252720776342 N
0.6005230007906468 0.5872012636038759 0.1744025272077585 N
0.7506042536713335 0.2375737403870982 0.0012095073427462022 N
0.08720126360389509 0.10052300079063527 0.6744025272077614 N
0.926120473582862 0.412798736396127 0.8255974727922366 N
0.7375737403870849 0.2506042536713716 0.5012095073427555 N
0.5765342843617361 0.5414635072018044 0.6530685687234954 O
0.9585364927981944 0.9234657156382532 0.8469314312765004 O
0.4234657156382639 0.4585364927981955 0.34693143127650483 O
0.42346571563825497 0.8883949384783062 0.34693143127650367 O
0.6116050615216754 0.0765342843617511 0.1530685687234918 O
0.5765342843617448 0.1116050615216936 0.6530685687234966 O
0.04146350720180559 0.07653428436174689 0.1530685687234996 O
0.3883949384783245 0.9234657156382489 0.8469314312765082 O
