System
1.0
5.857323080052485 -0.0238341784763043 -0.0168531971269327
2.908021461720883 5.036839962627631 -3.3778602e-09
2.9080214554349135 1.6789466546537388 4.748777617253829
Zn Ni O 
2 4 8 
direct
0.9816138508564851 0.0061290497132272 0.0061290497159327 Zn
0.12609232097222436 0.6246352263417743 0.6246352263435051 Zn
0.2553372319099698 0.2482212560294298 0.24822125603065748 Ni
0.6248629978188007 0.12472677237961352 0.6252051149009525 Ni
0.6248629978194146 0.6252051149013225 0.1247267723784023 Ni
0.624862997819056 0.6252051149007867 0.625205114900645 Ni
0.4104775695503269 0.3738166074142407 0.3738166074109859 O
0.4104775695487283 0.37381660741089107 0.8418892156284642 O
0.4104775695514655 0.8418892156256825 0.3738166074092855 O
0.8593575040844906 0.3802141653065675 0.3802141653036059 O
0.3994070223900671 0.8668639925389752 0.866863992534033 O
0.8407241225602419 0.415934374585312 0.8716707514271774 O
0.8407241225590032 0.8716707514255759 0.4159343745885705 O
0.8407241225597268 0.8716707514265957 0.8716707514277778 O
