System
1.0
3.4991089847009174 0.0014465120919386 -0.4200624710102428
1.7298085976304636 3.0416330030640957 -0.4200624819030797
-0.8031135648697298 -0.4673889648893401 6.48966825034892
Cd Hg O 
1 1 2 
direct
0.0 0.0 0.0 Cd
0.49999999999999994 0.49999999999999994 0.5 Hg
0.6127076888147766 0.6127076888149579 0.8179570925230167 O
0.38729231118522356 0.38729231118504187 0.1820429074769832 O
