System
1.0
5.000705479968098 -0.0177526681734632 3.2632429635608218
1.7580455423395585 4.6815218045427685 3.2632429511898238
-0.0257272250772369 -0.0177526485586314 5.97119362788864
Sc Bi O 
2 2 6 
direct
0.8520138438216347 0.8520138438216345 0.8520138438215147 Sc
0.1479861561783652 0.1479861561783652 0.1479861561784852 Sc
0.6364573608776083 0.6364573608776081 0.6364573608778629 Bi
0.3635426391223919 0.3635426391223918 0.363542639122137 Bi
0.5533403147713599 0.9833979178666836 0.2026239878932575 O
0.7973760121056197 0.4466596852280029 0.01660208213262243 O
0.016602082133109614 0.7973760121060505 0.4466596852286385 O
0.9833979178668905 0.20262398789394956 0.5533403147713614 O
0.20262398789438024 0.5533403147719969 0.9833979178673775 O
0.4466596852286404 0.016602082133316296 0.797376012106743 O
