System
1.0
5.733484868256948 -0.0 -0.0
0.0 5.733484868256948 -0.0
-0.0 0.0 5.733484868256948
K Cd N O 
1 1 3 6 
direct
0.0 0.0 0.0 K
0.5 0.5 0.5 Cd
0.5 0.5 0.0 N
0.5 0.0 0.5 N
0.0 0.5 0.5 N
0.5 0.0 0.7178865587235889 O
0.0 0.7178865587235889 0.5 O
0.0 0.282113441276411 0.5 O
0.5 0.0 0.282113441276411 O
0.282113441276411 0.5 0.0 O
0.7178865587235889 0.5 0.0 O
