System
1.0
1.8123591856896064 -3.139098823804326 0.0
1.8123591856896064 3.139098823804326 0.0
0.0 0.0 6.370894327980375
Sr Mg N 
1 2 2 
direct
0.0 0.0 0.5 Sr
0.3333330000000032 0.6666669999999968 0.8686057687354225 Mg
0.6666669999999968 0.33333300000000315 0.1313942312645775 Mg
0.3333330000000032 0.6666669999999968 0.2199080885838897 N
0.6666669999999968 0.33333300000000315 0.7800919114161101 N
