System
1.0
-5.8772403615e-06 4.8950138128240415 4.895022627024966
4.89500204838783 -9.800931387e-07 4.895017729877733
4.895007932264899 4.895013806187243 -6.863970197e-06
Ca Al N F 
6 2 1 1 
direct
0.24134189881872015 0.7586581011820975 0.7586591011813114 Ca
0.24134089881870566 0.7586591011811921 0.2413408988187736 Ca
0.7586591011812943 0.24134089881880771 0.7586591011812265 Ca
0.7586581011802577 0.7586581011809731 0.24134089881984705 Ca
0.24134089881974471 0.24134089881902906 0.7586591011801529 Ca
0.7586581011812801 0.24134089881790471 0.2413408988186885 Ca
0.25 0.24999999999999994 0.25 Al
0.7500000000000001 0.7499999999999999 0.7500000000000001 Al
0.0 0.0 0.0 N
0.5 0.4999999999999999 0.5 F
