System
1.0
3.7455024299095743 0.0 2e-16
1.3e-15 8.348368527168219 1.45826594e-07
-0.0 -1.458265935e-07 8.348368527168219
Ga Fe N 
1 19 5 
direct
0.0 0.0 0.0 Ga
0.0 0.5929755654186883 0.8012718351664586 Fe
0.0 0.1987281648335412 0.5929755654186883 Fe
0.0 0.8012718351664586 0.4070244345813119 Fe
0.0 0.4070244345813119 0.1987281648335412 Fe
0.5 0.0 0.5 Fe
0.5 0.61274504636886 0.3063106253438185 Fe
0.5 0.199129736145288 0.09772247062689651 Fe
0.5 0.3872549536311401 0.6936893746561814 Fe
0.5 0.9022775293731033 0.199129736145288 Fe
0.5 0.800870263854712 0.9022775293731033 Fe
0.5 0.09772247062689651 0.800870263854712 Fe
0.5 0.6936893746561814 0.61274504636886 Fe
0.5 0.3063106253438185 0.3872549536311401 Fe
0.0 0.10029970143273471 0.2927142877194694 Fe
0.0 0.7072857122805306 0.10029970143273471 Fe
0.0 0.2927142877194694 0.8997002985672655 Fe
0.0 0.8997002985672655 0.7072857122805306 Fe
0.0 0.5 0.5 Fe
0.5 0.5 0.0 Fe
0.5 0.7000383775826182 0.1014186064340766 N
0.5 0.5 0.5 N
0.5 0.8985813935659228 0.7000383775826182 N
0.5 0.29996162241738195 0.8985813935659228 N
0.5 0.1014186064340766 0.29996162241738195 N
