System
1.0
5.373895587461069 0.0 0.0
0.0 5.373895587461069 -0.0
0.0 0.0 5.373895587461069
Ca As N 
3 1 1 
direct
0.0 0.5 0.5 Ca
0.5 0.0 0.5 Ca
0.5 0.5 0.0 Ca
0.5 0.5 0.5 As
0.0 0.0 0.0 N
