System
1.0
6.3609781584830145 4.994636e-09 3.672512390156593
2.1203260575366603 5.997188059331553 3.6725123901565935
1.41269648e-08 9.9892732e-09 7.345025731176617
K Co Pb N O 
2 1 1 6 12 
direct
0.7500009999999975 0.7499990000000026 0.7499990000000023 K
0.25 0.25 0.24999999999999994 K
0.0 0.0 0.0 Co
0.5 0.5 0.4999999999999999 Pb
0.8091702927984021 0.1908307072030684 0.1908287071971984 N
0.1908297072015979 0.8091702927969363 0.8091692928027996 N
0.1908297072052546 0.8091702928005933 0.19082870719500755 N
0.8091702927947453 0.1908307071994117 0.8091692928049903 N
0.809170292794383 0.8091702927987644 0.19082970719976947 N
0.1908297072056171 0.19083070720124 0.8091702928002303 N
0.3576060286264621 0.149228066381158 0.6423939713715369 O
0.8507729336195275 0.6423929713741489 0.14922806637857522 O
0.1492280663822509 0.6423929713733232 0.3576060286273676 O
0.6423939713735376 0.8507709336188372 0.3576060286284631 O
0.14922906638212863 0.8507709336204722 0.6423949713705489 O
0.35760702862468474 0.8507709336196295 0.1492270663797598 O
0.6423939713753125 0.1492280663803658 0.8507709336202381 O
0.35760602862488106 0.6423929713725477 0.8507719336223702 O
0.6423929713751215 0.3576060286274548 0.14922906637763403 O
0.8507709336177443 0.3576060286266792 0.6423939713726322 O
0.8507719336178762 0.1492280663795235 0.3576060286294558 O
0.14922806638046957 0.3576060286258535 0.8507719336214248 O
