System
1.0
3.563682977279354 0.0 0.0
-0.0 3.563682977279354 0.0
0.0 0.0 6.995349741579697
Ca Ni N 
2 2 2 
direct
0.0 0.0 0.75 Ca
0.0 0.0 0.25 Ca
0.49999999999999994 0.49999999999999994 0.0 Ni
0.49999999999999994 0.49999999999999994 0.5 Ni
0.49999999999999994 0.0 0.5 N
0.0 0.49999999999999994 0.0 N
