System
1.0
3.854941139045826 -0.0069096547273307 -5.937359690426821
-0.3438943539224706 3.839577529126952 -5.93735969042682
0.006329826071477 0.0069096547324517 7.079037449560683
La Cu N F 
2 1 2 2 
direct
0.376366621850632 0.3763666218506321 -6.792670729197916e-16 La
0.6236333781493679 0.6236333781493679 8.441505394361726e-16 La
0.0 0.0 0.0 Cu
0.49999999999999994 -1.2133182048806083e-19 0.5000000000000001 N
1.1431580686782457e-18 0.5000000000000001 0.5000000000000001 N
0.7500000000000001 0.25 0.5000000000000002 F
0.24999999999999997 0.75 0.5000000000000001 F
