System
1.0
5.76819332666083 3.6640366742402315 -2.5607317212463947
-5.76819332666083 3.6640366742402315 2.5607317212463947
-0.0732718908335981 0.0 5.885569965060865
Si H C N F 
1 12 2 6 6 
direct
0.0 0.0 0.0 Si
0.5474216408441401 0.01091475600173128 0.7464211880183043 H
0.9890852439982684 0.45257835915585987 0.7464211880183043 H
0.4525783591558599 0.9890852439982684 0.25357881198169635 H
0.010914756001731342 0.5474216408441402 0.25357881198169635 H
0.3056249978170724 0.012618644425013006 0.7399561328069387 H
0.9873803555749826 0.6943750021829277 0.7399561328069388 H
0.6943750021829277 0.9873803555749826 0.2600438671930602 H
0.012618644425012999 0.3056249978170725 0.26004386719306016 H
0.30747887342022057 0.4525783647933012 0.7414328749243291 H
0.5474216352066985 0.6925211265797792 0.741432874924329 H
0.6925211265797792 0.5474216352066985 0.2585671250756706 H
0.4525783647933012 0.3074788734202205 0.2585671250756706 H
0.7222033276625035 0.2777966723374968 0.27266008858634605 C
0.2777966723374968 0.7222033276625035 0.7273399114136543 C
0.3826540125938572 0.6173459874061432 0.7198034715423033 N
0.6173459874061432 0.3826540125938572 0.2801965284576968 N
0.38317549455718514 0.9330270634873564 0.7279861901583633 N
0.06697293651264427 0.6168245054428148 0.7279861901583633 N
0.6168245054428148 0.06697293651264416 0.27201380984163737 N
0.9330270634873564 0.3831754945571851 0.2720138098416373 N
0.17979391133609 0.15279470700864986 0.8069001489637739 F
0.8472052929913501 0.82020608866391 0.8069001489637739 F
0.82020608866391 0.8472052929913501 0.19309985103622554 F
0.1527947070086499 0.17979391133609002 0.19309985103622548 F
0.851253177175032 0.14874682282496773 0.8325586871521122 F
0.1487468228249678 0.851253177175032 0.16744131284788788 F
