System
1.0
4.709722303343682 0.0034309794853107 -0.6469836788652674
-0.9466022065088955 5.229804577103595 -1.4009083251550407
0.0046895375838356 0.0040905223252 5.496309538339948
In Si O 
2 2 7 
direct
4.8881490170984654e-14 0.30725492089968937 0.6927450791002492 In
-4.8915901045055836e-14 0.6927450791003105 0.307254920899751 In
0.4107830346026761 0.22034166811232514 0.22034166811240166 Si
0.589216965397324 0.7796583318876747 0.7796583318875984 Si
0.78042450082653 0.9210523286484752 0.6084398986992803 O
0.2195754991735148 0.3915601013006474 0.07894767135171309 O
0.21957549917347013 0.0789476713515248 0.39156010130072 O
0.7804245008264851 0.6084398986993526 0.9210523286482868 O
0.5 3.097726428410426e-20 9.889967068548254e-20 O
0.2823471747924523 0.6096005744498729 0.6096005744498721 O
0.7176528252075477 0.39039942555012674 0.390399425550128 O
