System
1.0
-4.937073371628516 0.0389431505369026 0.0237828341710075
1.23195227e-08 -1.470953786643878 2.408658736422108
-1.6153785721919105 4.005447029436848 2.44610301044729
Li Fe Co O 
2 1 1 4 
direct
3.2100478096524464e-17 0.5 0.5 Li
0.0 0.0 0.0 Li
0.5 2.5204917074237863e-17 0.5 Fe
0.5 0.49999999999999994 -4.1203220855358597e-17 Co
0.7205227052203685 5.2000154127694204e-11 0.7582650258364085 O
0.722463855722557 0.5000000000576407 0.25676025644991846 O
0.2775361442774432 0.49999999994235905 0.7432397435500818 O
0.2794772947796316 -5.200008177903577e-11 0.2417349741635914 O
