System
1.0
-4.5862757992306555 4.5862757992306555 0.0
4.5862757992306555 -0.0 4.5862757992306555
4.5862757992306555 4.5862757992306555 -0.0
Zr N 
6 8 
direct
0.5 0.0 3.9629299439364103e-17 Zr
0.4999999999999999 0.0 0.49999999999999994 Zr
0.12499999999999994 0.24999999999999997 0.125 Zr
0.49999999999999983 0.49999999999999994 0.49999999999999994 Zr
0.8749999999999997 0.75 0.8750000000000001 Zr
-1.8241530548566722e-16 0.49999999999999994 0.49999999999999994 Zr
0.742088291947185 0.48417658389436974 0.27373712415844736 N
0.7420882919471848 0.0158234161056302 0.7420882919471851 N
0.7420882919471848 0.48417658389436974 0.7420882919471851 N
0.2737371241584472 0.0158234161056302 0.7420882919471851 N
0.257911708052815 0.5158234161056302 0.25791170805281505 N
0.7262628758415527 0.9841765838943697 0.25791170805281516 N
0.2579117080528149 0.5158234161056302 0.7262628758415528 N
0.25791170805281494 0.9841765838943697 0.25791170805281516 N
