System
1.0
3.213172249829655 0.0 0.0
-1.6065861249148274 2.782688795063065 -0.0
-0.0 0.0 7.589018036137232
Li Zr O 
1 2 3 
direct
0.0 0.0 0.49999998052785344 Li
0.6666675703737043 0.3333336815559207 0.1661656903050243 Zr
0.33333368155592075 0.6666673631118485 0.8338342707377789 Zr
0.6666675703737043 0.3333336815559207 0.668637946861968 O
0.0 0.0 0.0 O
0.33333368155592075 0.6666673631118485 0.33136201418083533 O
