System
1.0
8.605464764436423 0.0584421183022046 -3.6053758226274937
-1.5059491008581614 10.0476042815622 -2.00666717516293
-0.024956160274811 -0.0219758473095654 11.82049521838427
P Br N 
10 20 10 
direct
0.6145567806385344 0.3145388223905692 0.4075734650233682 P
0.3541436401206446 0.5212319966191574 0.7546986078824948 P
0.1667695942710285 0.7065938104006068 0.831932419570112 P
0.8332304057289711 0.2934061895993931 0.16806758042988904 P
0.38544321936146553 0.6854611776094313 0.5924265349766314 P
0.6911675028987733 0.0402413736262418 0.3366655240000744 P
0.19283736005753133 0.9951397696046113 0.8610492291716269 P
0.3088324971012258 0.9597586263737575 0.6633344759999255 P
0.8071626399424686 0.004860230395388802 0.1389507708283731 P
0.6458563598793553 0.4787680033808429 0.24530139211750415 P
0.03941683465437892 0.9472060043378527 0.1529402089783518 Br
0.5375689941713679 0.0949525336083133 0.7451311673082751 Br
0.41078011834519357 0.5204998405033735 0.12667599246522632 Br
0.9731641020468287 0.384759918017189 0.07930392474124008 Br
0.0077088933093671114 0.3309768375973652 0.36995347833671494 Br
0.6351031178073041 0.8529982410435251 0.9788544412110591 Br
0.806939932619435 0.008170026865616298 0.5284282495580455 Br
0.3648968821926966 0.1470017589564741 0.021145558788940713 Br
0.3630486179378962 0.2782331433085116 0.37238542979608824 Br
0.26220904317031585 0.6456920592049776 0.384349809391989 Br
0.20082452798699246 0.3287597327571345 0.7016788801959519 Br
0.19306006738056372 0.9918299731343844 0.4715717504419561 Br
0.7377909568296848 0.3543079407950223 0.6156501906080116 Br
0.46243100582863267 0.9050474663916872 0.2548688326917248 Br
0.7991754720130074 0.6712402672428655 0.29832111980404763 Br
0.6369513820621041 0.7217668566914887 0.6276145702039126 Br
0.589219881654806 0.4795001594966257 0.8733240075347736 Br
0.9605831653456212 0.05279399566214651 0.8470597910216485 Br
0.02683589795317181 0.6152400819828111 0.9206960752587594 Br
0.9922911066906339 0.6690231624026348 0.6300465216632855 Br
0.3379660247133724 0.8109497827013402 0.6623672344084843 N
0.20146951595135226 0.0118277131049729 0.7334987820587731 N
0.3507319564484312 0.549874571356771 0.626998223309937 N
0.3131867953826127 0.6308278513024658 0.8472401189611484 N
0.7862009734467805 0.141612809334788 0.0982110890245014 N
0.21379902655321914 0.8583871906652115 0.9017889109754983 N
0.6492680435515674 0.4501254286432295 0.3730017766900638 N
0.6620339752866269 0.18905021729865903 0.3376327655915153 N
0.7985304840486469 0.9881722868950275 0.2665012179412264 N
0.686813204617388 0.3691721486975339 0.15275988103885263 N
