System
1.0
-1.5973836616815633 -2.766749671627106 0.0
-1.597384653660242 2.766749669312617 0.0
-0.0 -0.0 -5.514216768407806
Zr N 
2 2 
direct
0.3333330000000032 0.6666659999999993 0.25 Zr
0.6666669999999967 0.3333340000000006 0.7499999999999999 Zr
0.0 0.0 0.5 N
0.0 0.0 0.0 N
