System
1.0
3.1495821494843925 -5.455237068517735 0.0
3.1495821494843925 5.455237068517735 -0.0
-0.0 -0.0 12.15270091212085
Ca Ga N 
12 2 10 
direct
-3.0733516779442856e-14 0.5913465873360547 0.12265185926627589 Ca
0.4086534126639756 0.4086534126639756 0.12265185926627589 Ca
0.5913465873360547 -3.0637302633490006e-14 0.377348140733724 Ca
-3.0733516779442856e-14 0.5913465873360547 0.377348140733724 Ca
3.0693527651035636e-14 0.4086534126639449 0.877348140733724 Ca
0.4086534126639449 3.0693527651035636e-14 0.877348140733724 Ca
3.0693527651035636e-14 0.4086534126639449 0.6226518592662759 Ca
0.4086534126639449 3.0693527651035636e-14 0.6226518592662759 Ca
0.4086534126639756 0.4086534126639756 0.377348140733724 Ca
0.5913465873360242 0.5913465873360242 0.877348140733724 Ca
0.5913465873360547 -3.0637302633490006e-14 0.12265185926627589 Ca
0.5913465873360242 0.5913465873360242 0.6226518592662759 Ca
0.0 0.0 0.24999999999999997 Ga
0.0 0.0 0.75 Ga
0.7015592305531637 -4.435793026581357e-14 0.75 N
0.6666669999999968 0.3333330000000032 0.0 N
0.3333330000000032 0.6666669999999968 0.49999999999999994 N
0.3333330000000032 0.6666669999999968 0.0 N
0.2984407694468365 4.4406790076464326e-14 0.24999999999999997 N
0.2984407694468808 0.2984407694468808 0.75 N
0.7015592305531192 0.7015592305531192 0.24999999999999997 N
-4.439863326053516e-14 0.7015592305531637 0.75 N
0.6666669999999968 0.3333330000000032 0.49999999999999994 N
4.4406790076464326e-14 0.2984407694468365 0.24999999999999997 N
