System
1.0
3.588450060702871 -0.0 2e-16
6e-16 3.588450060702871 2e-16
-0.0 -0.0 4.803042454632033
Ca Ce N 
1 1 2 
direct
0.0 0.0 0.0 Ca
0.5 0.5 0.49999999999999994 Ce
0.0 0.0 0.49999999999999994 N
0.5 0.5 0.0 N
