System
1.0
6.746639222028887 1.4849630859e-05 3.8951700234372817
2.248887000885321 6.36080412672975 3.89518190384553
-5.9364683069e-06 9.8999809878e-06 7.790351931431721
Cd Pd C N 
1 1 6 6 
direct
0.0 0.0 0.0 Cd
0.4999979999999981 0.49999999999999994 0.4999990000000025 Pd
0.3174582336470326 0.6825427663347621 0.31745723370259016 C
0.3174572337259625 0.6825427662515847 0.6825427662366857 C
0.682543766274035 0.3174562337484179 0.3174572337633145 C
0.3174572337497676 0.3174582337904352 0.6825427662320224 C
0.6825437662502303 0.6825427662095693 0.31745723376797774 C
0.6825447663529669 0.31745623366524084 0.6825437662974073 C
0.7878215227652848 0.7878205228149755 0.2121784772124635 N
0.7878205226397453 0.21218047733800022 0.7878195227076421 N
0.21217847726380357 0.7878215227636328 0.7878215227818386 N
0.7878195227362018 0.2121804772363624 0.21218047721815633 N
0.21217847736025724 0.7878195226619996 0.2121794772923608 N
0.21217947723471284 0.21217847718502722 0.7878205227875393 N
