System
1.0
6.422514976906336 -0.0 -0.0
0.0 6.422514976906336 -0.0
-0.0 -0.0 6.422514976906336
Cd C N 
2 4 4 
direct
0.49999999999999994 0.49999999999999994 0.49999999999999994 Cd
0.0 0.0 0.0 Cd
0.1995348504620695 0.8004651495379305 0.8004651495379305 C
0.8004651495379305 0.8004651495379305 0.1995348504620695 C
0.1995348504620695 0.1995348504620695 0.1995348504620695 C
0.8004651495379305 0.1995348504620695 0.8004651495379305 C
0.6958941388189726 0.6958941388189726 0.30410586118102706 N
0.30410586118102706 0.6958941388189726 0.6958941388189726 N
0.30410586118102706 0.30410586118102706 0.30410586118102706 N
0.6958941388189726 0.30410586118102706 0.6958941388189726 N
