System
1.0
7.930087561944093 1.878857410188691 -1.6427137740747675
-7.930087561944093 1.878857410188691 1.6427137740747675
-0.0431709876564388 0.0 9.271684821710954
Ti H O 
6 4 14 
direct
0.7688306419716371 0.231169358028363 0.7851334297496506 Ti
0.23246299192733863 0.7675370080726616 0.2124039734866244 Ti
0.8241823166183506 0.17581768338164908 0.4866349478740596 Ti
0.1674256188901096 0.83257438110989 0.5222956513304382 Ti
0.8809526046212091 0.11904739537879046 0.1683184519668243 Ti
0.11701775415239105 0.882982245847609 0.8265719836807047 Ti
0.07233122075016353 0.9276687792498365 0.242424231433965 H
0.9808374005195435 0.019162599480456444 0.4696675471016352 H
-0.00017384359358059998 0.0001738435935808 0.0352029773392264 H
0.9545469695086352 0.04545303049136528 0.792642468348332 H
0.2917469405163842 0.7082530594836164 0.45452081813179923 O
0.7037436680912643 0.2962563319087354 0.5419055894097867 O
0.3520317323153611 0.6479682676846386 0.18189425853492833 O
0.6492935338423419 0.35070646615765827 0.8173793270188295 O
0.010937834496248623 0.9890621655037518 0.8636161048771911 O
0.9908189122021126 0.00918108779788746 0.14070395048220077 O
0.17316456788343113 0.826835432116569 0.030752459652713504 O
0.923267266795349 0.0767327332046512 0.4038208542645703 O
0.13288207928570828 0.8671179207142915 0.3108880750650942 O
0.8629502243626032 0.13704977563739643 0.6836936273461756 O
0.7634066015954297 0.23659339840457036 0.2534793081353472 O
0.8296297306262845 0.17037026937371547 0.9686346876787314 O
0.07629705261960901 0.9237029473803903 0.5994584378153114 O
0.23798918000207195 0.7620108199979281 0.7426768392758676 O
