System
1.0
3.502939546569385 -0.0 -0.0
0.0 3.502939546569385 -0.0
-0.0 -0.0 3.502939546569385
Cu N 
3 1 
direct
0.5 0.5 0.0 Cu
0.5 0.0 0.5 Cu
0.0 0.5 0.5 Cu
0.0 0.0 0.0 N
