System
1.0
3.761724199165503 -0.0 -0.0
-0.0 3.761724199165503 0.0
-0.0 0.0 3.761724199165503
Fe Ni N 
3 1 1 
direct
0.0 0.5 0.5 Fe
0.5 0.0 0.5 Fe
0.5 0.5 0.0 Fe
0.0 0.0 0.0 Ni
0.5 0.5 0.5 N
