System
1.0
6.693822305440015 -0.0048739701639004 0.0
-2.3856061872678787 5.12801259230509 -0.0
-0.0 -0.0 5.014248797660035
Si Te N 
4 2 4 
direct
0.6053933538575622 0.15884271549314316 0.8628139240449074 Si
0.3946066461424857 0.5534493616356232 0.8628139240449074 Si
0.3946066461424377 0.8411572845068567 0.3628139240449074 Si
0.6053933538575146 0.446550638364377 0.3628139240449074 Si
-1.482851001329997e-13 0.7635861951341978 0.4675446765043617 Te
1.4828872092096408e-13 0.23641380486580227 0.9675446765043619 Te
0.5254223242785953 0.1446026509685743 0.20021373770291642 N
0.4745776757213467 0.6191803266899416 0.20021373770291642 N
0.4745776757214052 0.8553973490314253 0.7002137377029164 N
0.5254223242786529 0.38081967331005845 0.7002137377029164 N
