System
1.0
6.011380742775346 1.178e-12 0.2448679065871722
3.0056903713747767 5.643798795292689 0.122433948350887
0.0179573516761561 6.10675e-11 12.599829162193654
Sr Ta N 
8 4 12 
direct
0.8465624775464662 0.7678240345902596 0.0767762779825024 Sr
0.05632110307849241 0.4038630318225775 0.35864315583772005 Sr
0.9436788969215074 0.5961369681774227 0.6413568441622802 Sr
0.4601841449010643 0.5961369681774276 0.8586431558377206 Sr
0.6143865121367347 0.2321759654097367 0.5767762779825025 Sr
0.153437522453534 0.23217596540974028 0.9232237220174975 Sr
0.38561348786326544 0.7678240345902633 0.42322372201749764 Sr
0.5398158550989357 0.40386303182257266 0.1413568441622795 Sr
0.768149592003615 0.9973055963381561 0.8364415836250102 Ta
0.23185040799638493 0.0026944036618436994 0.16355841637498966 Ta
0.7654551883417735 0.0026944036618379 0.33644158362501 Ta
0.23454481165822608 0.9973055963381618 0.6635584163749897 Ta
0.5004562148383382 0.9990875703233233 0.7499999999999998 N
0.8041813124603656 0.8128886179530814 0.46030339916534607 N
0.6170699304134478 0.18711138204691088 0.9603033991653455 N
0.004985765032694131 0.3268248082944191 0.12553833901933897 N
0.6681894266728869 0.3268248082944197 0.37446166098065875 N
0.9950142349673055 0.6731751917055807 0.8744616609806607 N
0.33181057332711306 0.6731751917055803 0.6255383390193411 N
0.08700817335769 0.8259836632846105 0.2500000000000019 N
0.9129918266423096 0.1740163367153894 0.7499999999999977 N
0.4995437851616613 0.0009124296766762 0.25000000000000017 N
0.38293006958655196 0.8128886179530886 0.03969660083465469 N
0.19581868753963416 0.1871113820469184 0.5396966008346538 N
