System
1.0
3.660645414980292 -0.0 -0.0
-0.0 3.660645414980292 -0.0
0.0 0.0 8.425861793713969
Co Bi O 
1 2 6 
direct
0.5 0.5 0.1885028439462755 Co
0.0 0.0 0.5283206729536566 Bi
0.0 0.0 0.9467702918724554 Bi
0.5 0.5 0.3946007896099146 O
0.5 0.0 0.6827828594598846 O
0.0 0.5 0.14490492989594933 O
0.0 0.5 0.6827828594598846 O
0.5 0.5 0.9573208229060348 O
0.5 0.0 0.14490492989594933 O
