System
1.0
2.428296945356095 -0.4888922934301583 2.6736930367605263
0.6986462630529705 2.37645447203611 2.6736930351894257
-0.8099012822290035 -0.4888922948813705 3.519846967880019
W N 
1 2 
direct
0.0 0.0 0.0 W
0.7585129090099165 0.7585129090098323 0.7585129090096764 N
0.2414870909900837 0.2414870909901679 0.2414870909903236 N
