System
1.0
6.154422962490837 -2.54697687797e-05 3.5533088671420963
2.0514710819097055 5.802448344124309 3.5532735782245384
2.11162310641e-05 -2.76284137738e-05 7.106579325579322
Dy V O 
4 4 14 
direct
0.4999995409853173 -4.933227422999999e-07 1.599787274773777e-07 Dy
0.9999992467752175 1.0056602121e-06 0.9999993086523241 Dy
0.9999995303662281 2.2645423099999975e-07 0.5000001224261811 Dy
8.710882025216043e-07 0.49999999695767544 0.9999994357589167 Dy
2.756262416293072e-06 0.5000018875089943 0.4999988745526943 V
0.500001416121331 0.500001693274957 -2.985083612623115e-07 V
0.4999992414329497 1.1525102282e-06 0.49999841948766294 V
0.5000035039300336 0.499998457484771 0.5000016231278587 V
0.42148958290649635 0.8285099079631133 0.4214906217462814 O
0.5785098674594533 0.5785126745973778 0.1714893735631164 O
0.4214884873248362 0.8285125253286286 0.8285103397910385 O
0.8285119827523038 0.4214875490449236 0.8285112233511899 O
0.5785104428239429 0.1714870396249938 0.17148908897709825 O
0.8749995192977827 0.8749975765689625 0.8750015856419682 O
0.17148776848338199 0.5785116093567588 0.17148834730084733 O
0.1714895623627511 0.1714887175096717 0.578509372986656 O
0.1249992107711703 0.1250022816988558 0.12499895122661475 O
0.8285097165355907 0.4214883174290751 0.4214914173856853 O
0.17148994113873223 0.5785118374769872 0.5785092098692607 O
0.578509162517051 0.1714900218430763 0.5785093409394451 O
0.828509079949754 0.8285107097087809 0.4214910812964096 O
0.4214895687150563 0.4214863053204505 0.8285114004484008 O
