System
1.0
4.885740985141019 -0.0 0.0
0.0 6.150604234926883 0.0
0.0 0.0 10.425498071004192
Mn O F 
8 4 12 
direct
0.0 0.0 0.0 Mn
0.0 0.5 0.0 Mn
0.5157572270888866 0.25 0.2404785418123264 Mn
0.015757227088886498 0.75 0.2595214581876733 Mn
0.5 0.0 0.5 Mn
0.5 0.5 0.5 Mn
0.9842427729111134 0.25 0.7404785418123259 Mn
0.4842427729111135 0.75 0.7595214581876741 Mn
0.3458303495877279 0.75 0.5779753887141125 O
0.8458303495877277 0.25 0.9220246112858875 O
0.154169650412272 0.75 0.0779753887141122 O
0.6541696504122723 0.25 0.4220246112858876 O
0.229928285122399 0.9879369704594929 0.8381438610619089 F
0.2540609070675865 0.25 0.0904519411631861 F
0.7700717148776006 0.0120630295405071 0.1618561389380914 F
0.7700717148776006 0.48793697045949297 0.1618561389380914 F
0.2700717148776008 0.5120630295405071 0.3381438610619084 F
0.2700717148776008 0.9879369704594929 0.3381438610619084 F
0.7540609070675868 0.75 0.40954805883681383 F
0.24593909293241367 0.25 0.590451941163186 F
0.7299282851223993 0.0120630295405071 0.6618561389380913 F
0.7299282851223993 0.48793697045949297 0.6618561389380913 F
0.229928285122399 0.5120630295405071 0.8381438610619089 F
0.7459390929324131 0.75 0.9095480588368139 F
