System
1.0
5.940578300251007 -0.0021371721489297 -0.0386055218338411
-2.968082774888291 5.145965707054991 -0.0386055172197583
0.0499766713207048 0.0864833363384953 14.669668654356556
Ba Ca Ir O 
6 2 4 18 
direct
0.33459791241355824 0.6679850505360351 0.0882516180828565 Ba
0.332014949463933 0.6654020875864721 0.4117483819171431 Ba
0.9998308283772863 0.000169171622633999 0.2500000000000561 Ba
0.0001691716227129936 0.9998308283773653 0.7499999999999445 Ba
0.6679850505360669 0.33459791241352765 0.5882516180828574 Ba
0.6654020875864409 0.33201494946396504 0.911748381917144 Ba
0.0 0.0 0.0 Ca
-1.1840200025777947e-18 -2.1438656441248478e-18 0.5 Ca
0.3360960159643521 0.6693319088978589 0.6632116148527124 Ir
0.6639039840356469 0.33066809110214024 0.3367883851472874 Ir
0.6693319088979075 0.33609601596434197 0.1632116148527161 Ir
0.33066809110209144 0.6639039840356588 0.8367883851472847 Ir
0.9811910233724489 0.490771883835911 0.2518712499733486 O
0.5092281161641113 0.018808976627469397 0.24812875002672544 O
0.018808976627551266 0.5092281161640883 0.7481287500266516 O
0.35115100813945294 0.17298485644254688 0.41003216084630745 O
0.4907293704047651 0.5092706295952624 0.7500000000000057 O
0.17313309492964088 0.8165603213777752 0.9118995019081132 O
0.18343967862216382 0.8268669050702272 0.5881004980919181 O
0.8268669050703593 0.18343967862222507 0.0881004980918869 O
0.8165603213778366 0.17313309492977177 0.41189950190808194 O
0.6378100481450641 0.8163478588384685 0.9139323126645803 O
0.18365214116153697 0.36218995185492775 0.5860676873354876 O
0.3621899518549355 0.18365214116153267 0.0860676873354209 O
0.8163478588384636 0.637810048145071 0.4139323126645119 O
0.17298485644255787 0.35115100813942307 0.9100321608463509 O
0.6488489918605473 0.8270151435574533 0.5899678391536936 O
0.8270151435574422 0.6488489918605763 0.089967839153649 O
0.5092706295952365 0.490729370404738 0.2499999999999943 O
0.49077188383588877 0.981191023372531 0.7518712499732753 O
