System
1.0
4.2679654844902455 -0.0077832473735605 -2.4462666664316957
1.4149962836722383 4.607391113295271 -2.492767797627421
-0.0152152633329944 0.0390906363299274 4.919138370803268
V Ni O 
2 2 6 
direct
0.6460113166756929 0.0619726567461603 0.3539355202583399 V
0.3539919798260541 0.9380222282547347 0.6460606166845094 V
0.85002716734343 0.4498806105308249 0.14996327882899727 Ni
0.1499684238295985 0.5501205474031259 0.8500334532507309 Ni
0.2676612946779233 0.23782538840071318 0.06734673204122445 O
0.7323376061043145 0.7621740614969525 0.932654635028429 O
0.4381599161802587 0.7622104242084767 0.2676991165371954 O
0.5618404078521492 0.2377855713222907 0.7323037962861512 O
0.9326850282130649 0.23778598487821667 0.438129589161218 O
0.06731686929750755 0.7622225467585058 0.5618732619232125 O
