System
1.0
5.909084030000707 0.0002137677341486 0.0012196049696385
-2.9543753014273313 -5.098756336072564 0.0230426468877139
-2.953572342889346 1.6866067962418 -4.7691259885800825
Li Ti V O 
3 2 2 8 
direct
0.5 0.5 0.5 Li
4.078446582281067e-17 0.5 0.5 Li
0.5 0.5000000000000001 6.220329338894729e-19 Li
0.5 9.212975118592345e-22 1.75833152704757e-21 Ti
0.0 0.0 0.0 Ti
0.5 -4.403183170406507e-17 0.5 V
2.9456085727318665e-17 0.5 3.1666909933290665e-19 V
0.4786374311376906 0.7529586220369552 0.2370761693558287 O
0.984891508927935 0.24365601872693174 0.22612672337793638 O
0.011390710553010377 0.7529543392627568 0.2370738083950617 O
0.5111912137461264 0.7636345862159573 0.7587499796096777 O
0.4888087862538732 0.2363654137840426 0.2412500203903223 O
0.9886092894469894 0.24704566073724318 0.7629261916049381 O
0.015108491072065092 0.7563439812730682 0.7738732766220636 O
0.5213625688623095 0.24704137796304476 0.7629238306441711 O
