System
1.0
2.7741501807143565 -0.0001111922834746 9.9898711255e-05
-1.386933404799037 5.213132537425422 -0.4680699896377989
-0.0003741871646695 -2.2572168688423018 6.664927179702371
Li Fe O 
2 2 6 
direct
0.6241785737217409 0.7483349102257509 0.36412929686852824 Li
0.3758214262782593 0.2516650897742491 0.6358707031314722 Li
0.8122174292488442 0.12442475882382374 0.19210041537007733 Fe
0.18778257075115634 0.8755752411761767 0.8078995846299227 Fe
0.9956671765667332 0.491317204575847 0.39511065132587664 O
0.004332823433267615 0.5086827954241526 0.6048893486741231 O
0.36040837088168676 0.22079297477438353 0.04850913891963941 O
0.25549444014130357 0.010993506412763733 0.31961058768897077 O
0.6395916291183129 0.7792070252256165 -0.0485091389196394 O
0.7445055598586966 0.9890064935872367 0.6803894123110295 O
