System
1.0
4.2450412659373855 -7.352627645771238 0.0
4.2450412659373855 7.352627645771238 -0.0
0.0 -0.0 5.009171797487515
Ga Ge Pb O 
2 4 3 14 
direct
0.6666669999999968 0.33333300000000315 0.49317681476886294 Ga
0.3333330000000032 0.6666669999999967 0.5068231852311367 Ga
0.24403541559117128 1.3337614719336147e-13 0.5 Ge
0.0 0.0 0.0 Ge
1.3339002498116929e-13 0.24403541559117128 0.5 Ge
0.7559645844086953 0.7559645844086952 0.5 Ge
0.5712593185640935 7.849643215748174e-13 0.0 Pb
7.850198327260487e-13 0.5712593185640935 0.0 Pb
0.4287406814351214 0.42874068143512134 0.0 Pb
0.15827987486429507 0.4485300629903073 0.668770263587722 O
0.9118340907139337 0.7915427115631567 0.7667581225144009 O
0.08816590928652299 0.8797086208499808 0.2332418774855988 O
0.709749811874807 0.5514699370102681 0.3312297364122783 O
0.44853006299030723 0.15827987486429512 0.3312297364122783 O
0.8797086208499808 0.08816590928652293 0.7667581225144009 O
0.2902501881254365 0.8417201251348856 0.668770263587722 O
0.1202913791503199 0.20845728843608516 0.2332418774855988 O
0.7915427115631568 0.9118340907139336 0.2332418774855988 O
0.3333330000000032 0.6666669999999967 0.1486444809780752 O
0.551469937010268 0.7097498118748071 0.668770263587722 O
0.6666669999999968 0.33333300000000315 0.8513555190219247 O
0.8417201251348856 0.2902501881254365 0.3312297364122783 O
0.2084572884360852 0.12029137915031987 0.7667581225144009 O
