System
1.0
6.313968734848665 -0.0 3.6453718098342933
2.1046562449495547 5.952867083022323 3.6453718098342933
-0.0 0.0 7.290743619668587
Sm Ru O 
4 4 14 
direct
0.5 0.49999999999999994 0.5000000000000001 Sm
7.545048800365661e-18 0.49999999999999994 0.5000000000000001 Sm
0.5 0.0 0.5000000000000001 Sm
0.5 0.49999999999999994 9.690803360693511e-17 Sm
0.0 0.0 0.0 Ru
0.0 0.0 0.5 Ru
0.5 0.0 2.069844118783864e-17 Ru
7.545048800365661e-18 0.49999999999999994 4.8454016803467555e-17 Ru
0.33092664434662356 0.9190733556532099 0.3309266443470159 O
0.9190733556533763 0.3309266443467901 0.9190733556529845 O
0.9190733556533763 0.3309266443467901 0.3309266443468494 O
0.625 0.625 0.6250000000000002 O
0.6690733556533762 0.08092664434679009 0.08092664434684943 O
0.0809266443466236 0.6690733556532099 0.08092664434701591 O
0.08092664434645712 0.08092664434679009 0.6690733556533763 O
0.6690733556535431 0.6690733556532099 0.08092664434662365 O
0.6690733556533762 0.08092664434679009 0.6690733556529845 O
0.33092664434662356 0.9190733556532099 0.919073355653151 O
0.0809266443466236 0.6690733556532099 0.6690733556531508 O
0.37500000000000006 0.37499999999999994 0.3750000000000001 O
0.9190733556535431 0.9190733556532099 0.3309266443466238 O
0.3309266443464571 0.3309266443467901 0.9190733556533764 O
