System
1.0
6.3397574052189505 -0.0051102451693483 2.126836509440219
1.5282435737760427 6.152803951356751 2.126841815306642
-0.0065426791523435 -0.0051174109165671 6.686995609647836
Na Co N O 
3 1 6 12 
direct
0.7346788020005575 0.73467880200056 0.7346778020005362 Na
0.4999990000000024 0.5000009999999975 0.5000009999999975 Na
0.2653221979994466 0.26532119799943965 0.26532119799946013 Na
0.0 0.0 0.0 Co
0.20393064955290552 0.1866203094292421 0.8288770120639012 N
0.7960693504470944 0.813379690570758 0.17112398793609654 N
0.8288770120639317 0.20393064955288837 0.1866203094292626 N
0.8133786905707713 0.17112398793606584 0.7960693504471036 N
0.1711239879360653 0.796070350447117 0.813378690570733 N
0.18662130942922855 0.8288780120639285 0.2039296495528916 N
0.3737469220793382 0.7640327441822233 0.7622265589984997 O
0.7622265589984306 0.3737459220792991 0.7640327441822699 O
0.6262540779206671 0.2359662558177729 0.23777444100150533 O
0.764032744182259 0.7622265589984992 0.37374592207927226 O
0.23596625581773678 0.2377744410015062 0.6262530779207224 O
0.9135930933153023 0.3029532088063083 0.25326395365643395 O
0.7467360463437408 0.0864059066847042 0.6970457911935991 O
0.6970457911935646 0.7467340463436135 0.08640690668483327 O
0.08640790668470298 0.6970457911936878 0.7467350463435681 O
0.23777344100156975 0.6262530779206958 0.23596625581772465 O
0.3029532088064316 0.25326495365638196 0.9135930933151668 O
0.25326495365625634 0.9135930933152988 0.30295420880640167 O
