System
1.0
4.943198171269672 -0.0533432005061662 0.9617008886399342
1.0420484073643956 6.732058000751434 0.9653280556029079
-0.1746459133828027 0.386163501296054 6.867220278563123
Ca Si W O 
2 4 2 12 
direct
0.7500000000020703 0.27886322251693113 0.7211367774840026 Ca
0.2500009999979274 0.7211367774830689 0.2788642225160021 Ca
0.2908959747564019 0.20622007591108749 0.3978142828797059 Si
0.2091030252382982 0.6021857171203567 0.7937799240841499 Si
0.790895974761704 0.3978142828796437 0.20622007591585062 Si
0.709104025243598 0.7937799240889127 0.6021857171202939 Si
0.2499989999980205 0.06603894345476398 0.9339620565435768 W
0.7499990000019846 0.9339630565452386 0.06603794345642286 W
0.6395659534484492 0.9425645499447778 0.767434892251816 O
0.8604340465603446 0.23256410774490296 0.0574354500620466 O
0.6774934745054106 0.6224395438714511 0.1125766446790825 O
0.8225055255024387 0.8874243553236113 0.3775604561358312 O
0.32250552549459194 0.37755945612855113 0.8874233553209172 O
0.9428721953186803 0.6018357046869712 0.6783597093258805 O
0.05712680468132167 0.3981642953130283 0.3216402906741195 O
0.4428731953030732 0.6783597093224497 0.6018367046849681 O
0.36043304655155284 0.05743545005522199 0.23256510774818384 O
0.5571278046969246 0.3216412906775478 0.39816329531503214 O
0.17749447449756153 0.11257564467638898 0.6224395438641683 O
0.1395669534396527 0.7674358922550968 0.9425645499379532 O
