System
1.0
5.103802562475597 -0.0086703717404868 0.0287789538743317
0.5488385319168922 6.09409123955738 -0.0790106332885019
0.4776861093545218 2.770164216686136 8.092195159279903
Li Ni P O 
4 2 4 14 
direct
0.7967720946825705 0.20852775321921202 0.460074233446766 Li
0.7003992113624568 0.058192679018564196 0.8422191118795902 Li
0.2996007886375436 0.9418073209814353 0.1577808881204091 Li
0.20322790531742957 0.791472246780788 0.5399257665532347 Li
0.7554911330339279 0.564820085148405 0.7326945504569837 Ni
0.24450886696607196 0.43517991485159435 0.2673054495430165 Ni
0.789258813567853 0.21018558586308142 0.1258857123517143 P
0.7152351154026826 0.7412911192039213 0.3515428092790804 P
0.2847648845973166 0.2587088807960777 0.6484571907209211 P
0.210741186432147 0.7898144141369189 0.8741142876482857 P
0.27095343330677674 0.7046687903740496 0.0559182001124375 O
0.20577307643538154 0.1551478397941752 0.5176726033362857 O
0.25575241907002466 0.06620470027821619 0.8326921216815891 O
0.4183173622972456 0.7035447003951254 0.3625211496624424 O
0.40301305202654153 0.7117141564351047 0.7574642701232953 O
0.596986947973459 0.2882858435648955 0.2425357298767046 O
0.8941790043815103 0.536695876092292 0.341665573990042 O
0.7442475809299762 0.9337952997217831 0.1673078783184112 O
0.7942269235646181 0.8448521602058239 0.48232739666371477 O
0.729046566693224 0.29533120962595033 0.944081799887562 O
0.1058209956184889 0.4633041239077074 0.6583344260099584 O
0.9218906392047831 0.7871274959536302 0.833497538640263 O
0.5816826377027545 0.2964552996048744 0.6374788503375569 O
0.07810936079521719 0.21287250404637004 0.1665024613597369 O
