System
1.0
4.318943869662638 -0.2251319169946992 1.6769641232013044
1.6394461594913283 4.00202159158035 1.6769641232013053
-0.0896034138896567 -0.0567975924824651 5.890433290254545
Li Co C O 
1 1 2 6 
direct
6.193423079985818e-19 4.2677403704371355e-19 0.5 Li
0.0 0.0 0.0 Co
0.5572756067974931 0.557275606797493 0.21246805519601558 C
0.4427243932025073 0.4427243932025073 0.7875319448039837 C
0.24032350085190513 0.6874271969866248 0.2715664197591355 O
0.312572803013375 0.7596764991480951 0.7284335802408647 O
0.7347201520745988 0.734720152074599 0.09671293954926247 O
0.26527984792540094 0.2652798479254009 0.9032870604507376 O
0.6874271969866248 0.2403235008519052 0.2715664197591354 O
0.759676499148095 0.3125728030133751 0.7284335802408647 O
