System
1.0
2.86510732595575 0.0 -0.0
-1.432553662977875 2.4812566882140916 0.0
0.0 -0.0 11.025037402954005
Fe O 
2 4 
direct
0.6666669999999968 0.3333330000000032 0.7499999999999999 Fe
0.3333330000000032 0.6666669999999968 0.25 Fe
0.3333330000000032 0.6666669999999968 0.3944671872306815 O
0.6666669999999968 0.3333330000000032 0.8944671872306814 O
0.3333330000000032 0.6666669999999968 0.1055328127693185 O
0.6666669999999968 0.3333330000000032 0.6055328127693185 O
