System
1.0
-1.5570614518811932 -2.6964540979615146 7.2401176708e-05
-1.5566674052519742 2.696227532619807 1.9754411e-09
0.0008568100798142 0.0004944020929139 -8.804272257006577
Ti H O 
2 2 3 
direct
0.6665704921997451 0.3332862460968691 0.8769874026264035 Ti
0.3334295078002551 0.6667137539031315 0.12301259737359611 Ti
0.33307773705084204 0.6665378685272125 0.6317061934633761 H
0.6669222629491579 0.3334621314727876 0.3682938065366241 H
0.33312876238289396 0.6665648811909992 0.7445819554360239 O
0.6668712376171064 0.3334351188090009 0.255418044563976 O
0.0 0.0 0.0 O
