System
1.0
5.689063417205173 0.0206955580996504 -0.0594048873417306
2.8270410607675855 4.9373224914767615 0.0144811846034124
0.0961955683528677 -0.0820202206738738 9.20485691163748
Li Ti Co O 
4 2 6 16 
direct
0.666671474702343 0.6666752910432786 0.8931199280096941 Li
0.33331248941727043 0.3333413722716226 0.39312403289174475 Li
3.444271953369959e-05 7.135485607503975e-06 0.9980118173652122 Li
0.9999049325061331 5.2330955942701274e-05 0.49800543437118655 Li
0.6666081908753472 0.6666982209668615 0.4954531027715252 Ti
0.3333553253433347 0.3333393557783579 0.9954513339784627 Ti
0.8301286160532326 0.8301107556749066 0.21501377309922912 Co
0.6602081987206201 0.16989563299215502 0.7150209593180462 Co
0.8301261835220325 0.3397782387214706 0.21501768472162353 Co
0.16985737846497867 0.6602435134145704 0.7150138818109139 Co
0.33977626342912176 0.8301180632276826 0.21501447454381334 Co
0.16985312496165672 0.169902684081178 0.7150146269742558 Co
0.8354462375459408 0.3290535760739698 0.599902047943848 O
0.4816042216652606 0.036764601196407905 0.8352667960818513 O
0.9632362107565253 0.5183899775775132 0.33527492927660313 O
0.036749244223057566 0.4816223475942911 0.8352654271521337 O
0.5183854539632574 0.9632473439066509 0.3352638209306226 O
0.6710035072474996 0.1645023359929633 0.09988943267938281 O
-1.1140907456101724e-05 1.1826914924024516e-06 0.8073260470449333 O
0.16452589592090547 0.6709767772357196 0.09989582972146711 O
0.33330929749336063 0.3333475397291774 0.6094726591558 O
0.6666718651488587 0.6666689088296391 0.10947521750797762 O
0.4816136192206197 0.48163384721203883 0.8352636852702162 O
0.5183811758350978 0.5183706949533986 0.33526414481543254 O
0.16452304798142953 0.16453083740650853 0.09990542165405492 O
0.32896266365331517 0.8355222839460803 0.5998824973931824 O
1.2378484316599563e-05 1.033501874100258e-06 0.30732526286092293 O
0.8354487010524149 0.8355031175386327 0.5999037306558733 O
