System
1.0
3.508602872150584 8.45873048531e-05 -0.0032329441823462
8.45873048531e-05 3.508602872150584 0.0032329441823462
-0.0081432681816862 0.0081432681816862 4.279300506175269
Li H O 
2 2 2 
direct
0.4453955291168933 0.5547075028216688 0.0163486663322696 Li
0.9452924971783311 0.054604470883106694 0.016348666332269602 Li
0.9466787769928469 0.5533212230071531 0.44480458670071227 H
0.4438167503720962 0.0561832496279037 0.5878581579519069 H
0.9460899068242874 0.5539100931757126 0.21737375821269403 O
0.44458253951554266 0.055417460484457094 0.8152851644701414 O
