System
1.0
2.7787553904836613 -4.812945007195879 -0.0
2.7787553904836613 4.812945007195879 0.0
0.0 -0.0 13.543917894724524
Ba B P O 
6 2 2 6 
direct
0.3333330000000032 0.6666669999999968 0.5973245619574648 Ba
0.0 0.0 0.75 Ba
0.0 0.0 0.25 Ba
0.6666669999999968 0.3333330000000032 0.0973245619574649 Ba
0.6666669999999968 0.3333330000000032 0.40267543804253514 Ba
0.3333330000000032 0.6666669999999968 0.9026754380425354 Ba
0.6666669999999968 0.3333330000000032 0.75 B
0.3333330000000032 0.6666669999999968 0.25 B
0.0 0.0 0.0 P
0.0 0.0 0.5 P
0.4782697737789405 0.5217302262210595 0.25 O
0.5217302262208917 0.04346145244194179 0.75 O
0.5217302262210595 0.47826977377894053 0.75 O
0.04346145244194179 0.5217302262208917 0.25 O
0.4782697737791082 0.9565385475580581 0.25 O
0.9565385475580581 0.478269773779108 0.75 O
