System
1.0
3.9175248936462186 -0.0 0.0
0.0 3.9175248936462186 0.0
0.0 0.0 9.729782909705738
Ba Cu Hg O 
2 1 1 4 
direct
0.5 0.5 0.6969708379237413 Ba
0.5 0.5 0.3030291620762585 Ba
0.0 0.0 0.5 Cu
0.0 0.0 0.0 Hg
0.0 0.0 0.7933410517323063 O
0.0 0.0 0.20665894826769327 O
0.0 0.5 0.5 O
0.5 0.0 0.5 O
