System
1.0
3.7317949525622764 -6.463658566652596 -0.0
3.7317949525622764 6.463658566652596 0.0
0.0 0.0 5.942607514355719
Ag Mo Cl O F 
6 2 1 7 3 
direct
0.8214255815395513 0.17857441846044894 0.8185046221989112 Ag
0.4951072585329314 0.504892741467068 0.2624995332796389 Ag
0.009786482933913548 0.5048927414668548 0.2624995332796389 Ag
0.3571478369206872 0.17857441846024286 0.8185046221989112 Ag
0.8214255815397574 0.6428521630793125 0.8185046221989112 Ag
0.4951072585331446 0.9902135170660854 0.2624995332796389 Ag
0.3333330000000032 0.6666669999999967 0.7493707612250778 Mo
0.0 0.0 0.3223168174446248 Mo
0.6666669999999968 0.33333300000000315 0.5041438484034129 Cl
0.07872885612715717 0.5393639280641908 0.8673698595975555 O
0.2476498929827541 0.12382444649071399 0.1895942886843553 O
0.4606360719358089 0.9212711438728424 0.8673698595975555 O
0.8761755535079572 0.12382444649204266 0.1895942886843553 O
0.8761755535092861 0.7523501070172458 0.1895942886843553 O
0.46063607193703104 0.5393639280629686 0.8673698595975555 O
0.3333330000000032 0.6666669999999967 0.4424734888218675 O
0.11732970093515757 0.8826702990648425 0.569079724274551 F
0.11732970093461044 0.23466040186976536 0.569079724274551 F
0.7653395981302342 0.8826702990653897 0.569079724274551 F
