System
1.0
3.55304730696147 0.1685559500082331 -3.6816044406456556
-0.4607447508446605 3.5270774431546035 -3.681604429772923
-0.1410387983567724 -0.1685559285585865 5.114534623529845
Fe O 
2 4 
direct
0.0 0.0 0.0 Fe
0.7500009999999974 0.25000000000000006 0.5000009999999976 Fe
0.9605450073526054 0.460545007361967 0.5000010000032487 O
0.789455992647392 0.7894549926380324 -3.2511225425378396e-12 O
0.2105440073526078 0.21054500736196716 1.0000032485108503e-06 O
0.5394569926473894 0.03945699263803501 0.5000019999967511 O
