System
1.0
4.350009056490807 0.0028329666586357 0.111420830684364
0.1491787406343721 7.237352935355018 0.7906622142590131
-0.0461676431829054 0.0261186529649382 7.282995793495174
Mn O F 
8 13 3 
direct
0.5015601662631597 0.698428220438003 0.9497833922679918 Mn
0.5203340756838707 0.2924059931624347 0.06394023861506291 Mn
0.48366457431231086 0.18507773060308888 0.44516637924421754 Mn
0.49930720701360576 0.801154513615902 0.5549850309911334 Mn
0.018384939078133794 0.9503360782342366 0.20821064274095696 Mn
0.010170630499535198 0.562003129860134 0.2928674102817251 Mn
0.9910351968343665 0.4540856704928022 0.6944409626815573 Mn
0.0136780266892401 0.06229283650969429 0.7935154017749988 Mn
0.7669570801026839 0.7701921181554772 0.34768001676453475 O
0.7612270494313708 0.26895544088625833 0.8461177922542101 O
0.7289916246838237 0.01703036996926 0.5995930886297131 O
0.7372339989190767 0.5176995056585816 0.09853158100936282 O
0.7244356467150732 0.6490715234659545 0.7315546549774132 O
0.7433339811653403 0.14883130431479888 0.23967209831442907 O
0.22937602320406436 0.5998166914979245 0.5140966399940878 O
0.2653521595552415 0.9798710553874742 0.40396648978110994 O
0.2635535091978836 0.3465097691913893 0.2683948319572457 O
0.2272239444715763 0.2342707327445129 0.6428547363448623 O
0.2337702266827101 0.7331990554630087 0.15075605898023284 O
0.24282576083252455 0.0975907430838855 0.020450911531884 O
0.2620735822947973 0.8505937895277829 0.7702274475429214 O
0.7447007964024819 0.40062019893493217 0.4691468046263935 F
0.25714188039374936 0.46619996607726677 0.9088265371910109 F
0.7736689195733694 0.9137625627251836 0.9852238515029522 F
