System
1.0
6.032199958689584 -0.0019676421763523 0.0199410220916877
2.9860428601592632 5.241286906875375 0.0197296262830253
0.0523559385141698 0.0307683008833542 8.8415445577671
Cr Sb O 
5 3 16 
direct
0.8360934170230139 0.3357028846757659 0.7944113483338775 Cr
0.656842980635445 0.6568255413199212 0.519558172771931 Cr
0.33572082965579125 0.8360763488343533 0.7944118464555782 Cr
0.16920199300729014 0.1691855250403779 0.2911237585945226 Cr
0.3261845928785291 0.3261706244904569 0.0021903226802066 Cr
0.8338258708696397 0.8338093934712872 0.7911511779962809 Sb
0.666432540322915 0.16927224030692437 0.2883714686856845 Sb
0.16928907223668424 0.6664154006374258 0.288372718418123 Sb
0.6594640055221273 0.17402428538913037 0.8998961969444154 O
0.3322151593938788 0.3321982940156043 0.4096235974402606 O
0.04989357815935838 0.4709533070010004 0.158978599483163 O
0.4709706417840768 0.0498756814575838 0.1589782808095226 O
0.8306323266908773 0.8306178570508953 0.4006370842603578 O
0.17220561214702193 0.1721890605350509 0.8921715451882672 O
0.5196354099505952 0.9481708811392877 0.6557565518731588 O
0.004838464341000698 0.0048191912863143 0.68637472963721 O
0.33515030546638175 0.8314182780733742 0.3982134182877768 O
0.004327631292465101 0.0043079400493302 0.1756247566682753 O
0.4782691749614437 0.4782516843703283 0.1494057487336215 O
0.6656739978246519 0.6656595423164987 0.9060213061344458 O
0.5296729987808311 0.5296535220767709 0.6691444097011913 O
0.8314338277096536 0.335135151369077 0.3982122214542634 O
0.948186404698791 0.5196170902029191 0.6557549970757232 O
0.17403916464753572 0.6594482748903194 0.8998957423721539 O
