System
1.0
4.459070020436934 -0.0464564805663403 2.3909215920320954
1.7534647847794271 4.100100596361565 2.390921592032094
-0.0139308091162776 -0.0090897748138247 5.202004260904013
V O F 
2 4 2 
direct
0.7640657637197098 0.23530150111568823 0.8114968717734454 V
0.2353015011156883 0.7640657637197098 0.311496871773446 V
0.8506119531987204 0.5594271869456992 0.6093913638243376 O
0.05744284542626432 0.9657485262593221 0.6014539396767689 O
0.5594271869456994 0.8506119531987203 0.10939136382433742 O
0.9657485262593222 0.05744284542626429 0.10145393967676934 O
0.45106756819514565 0.35876565513945324 0.6140098247254494 F
0.3587656551394532 0.4510675681951455 0.11400982472544963 F
