System
1.0
5.286720986974693 1.391032e-10 -2.0262997861440484
-0.8394333433260074 5.499916043317063 -2.1901237130712947
-0.220815554079453 -0.8566762728828949 7.333694906169949
Nd O 
4 10 
direct
0.6789959235128533 0.8401560531775386 0.7805646737305331 Nd
0.8984332497823093 0.659843946822458 0.21943532626946474 Nd
0.32100407648714696 0.15984394682246134 0.21943532626946707 Nd
0.1015667502176906 0.34015605317754183 0.7805646737305352 Nd
0.38205431879283897 0.6566721856626772 0.3774699004257632 O
0.004583418367070118 0.8433278143373215 0.6225300995742382 O
0.6179456812071613 0.34332781433732273 0.6225300995742371 O
0.99541658163293 0.15667218566267854 0.37746990042576173 O
0.9460063741911708 0.24999999999999833 1.4471432852812807e-15 O
0.05399362580882922 0.7500000000000011 -1.443206343112071e-15 O
0.4748555791692285 0.522046658537423 0.19655292462766005 O
0.2783026545415726 0.9779533414625767 0.803447075372341 O
0.5251444208307713 0.47795334146257695 0.8034470753723397 O
0.7216973454584277 0.022046658537423408 0.19655292462765903 O
