System
1.0
5.607190600297156 -0.2098263028062386 -1.2873086794170496
-3.1760799892246583 4.625703133592798 -1.2873086792699786
0.0200343077367061 0.036390365335667 6.303405637958079
Cr Si O 
4 2 8 
direct
0.7779316869935885 0.22206831300640897 0.7500000000000081 Cr
0.4720683130064118 0.5279316869935913 0.7499999999999919 Cr
0.22206831300641175 0.777931686993591 0.24999999999999178 Cr
0.5279316869935884 0.4720683130064086 0.25000000000000827 Cr
0.12499999999999999 0.8749999999999998 0.75 Si
0.875 0.12499999999999996 0.24999999999999994 Si
0.2692973723801035 0.22385403956448768 0.9038452819264532 O
0.32000875763920705 0.8654520904548072 0.5961547180668174 O
0.7761459604355014 0.7307026276198956 0.5961547180735599 O
0.13454790954518797 0.6799912423608089 0.9038452819331696 O
0.7307026276198963 0.7761459604355122 0.09615471807354702 O
0.6799912423607931 0.13454790954519258 0.4038452819331825 O
0.8654520904548123 0.32000875763919073 0.0961547180668305 O
0.2238540395644987 0.26929737238010437 0.40384528192644 O
