System
1.0
4.287312361834442 0.0 -0.0
-0.0 4.287312361834442 -0.0
0.0 0.0 4.287312361834442
K Bi O 
1 1 3 
direct
0.0 0.0 0.0 K
0.5 0.5 0.5 Bi
0.5 0.5 0.0 O
0.5 0.0 0.5 O
0.0 0.5 0.5 O
