System
1.0
4.9237810941162286 -0.0437122596768712 -1.6602181530441145
-0.5778086670992256 5.150446336082963 -1.847418994449058
0.0582272219638744 0.04582050256985 8.302746736955472
Ca Al Co O 
4 2 2 10 
direct
0.1165959085285428 0.641543174278306 0.2187312170265682 Ca
0.3980785158311628 0.9230034356976177 0.7816813102591441 Ca
0.8980520443317824 0.36235319733616816 0.7816587206874228 Ca
0.6166096971767209 0.0809032130820446 0.2187396250726736 Ca
0.29389121275889707 0.32638926710949784 0.5002049033904684 Al
0.7939042244179062 0.6775290185301579 0.5002071333971961 Al
0.4969059173388133 0.5019491040022392 0.00019532440422660973 Co
0.9969159922396064 0.0019486101357602016 0.00019486920205825795 Co
0.2628314681882238 0.2608337576678846 0.025617756768217516 O
0.2373362531019107 0.742987341015191 0.9747843091931097 O
0.8229222593722043 0.9223185507189442 0.7064428993660292 O
0.11668124253186071 0.08159417289239139 0.2939646899033092 O
0.6356527610152987 0.3868464681086769 0.5002044761341214 O
0.6167015353953083 0.7161111194509467 0.2939864970818784 O
0.1356649974760012 0.6170638788201503 0.5002132134366546 O
0.7628357464944082 0.26848449598709556 0.025613701597636863 O
0.3229137117258046 0.2878028898358032 0.7064277271681801 O
0.737356502075544 0.735493305331135 0.9748006459110939 O
