System
1.0
5.282762136267484 -0.0017885910795464 1.4726668245370431
1.3167005859905954 5.2468455256030175 1.5274118478002152
-0.0451791460317365 -0.0275105443505243 7.199486514571957
Mn O F 
6 5 7 
direct
0.7078019049142874 0.6764821800364537 0.8383963973671029 Mn
0.30992947051744135 0.3670713677985087 0.6684067956778942 Mn
0.6724615245759643 0.6146754307898186 0.3064186704148133 Mn
0.30357452951410685 0.3334386427917144 0.17247423986813104 Mn
0.994688825460451 0.9956100271826044 0.4959318303695929 Mn
0.008672051059510799 0.008393103962858202 0.0018179954712177011 Mn
0.9629540142341773 0.3273583817919726 0.3262425231150273 O
0.4102634467858405 0.42954624211142295 0.38105954896897437 O
0.8038861269861539 0.7760074011987691 0.026246747445438333 O
0.21719761000949522 0.2477317575811479 0.9566556595173961 O
0.033029326869070785 0.6671141034380412 0.6679239694334511 O
0.3896915743195553 0.9340889604247381 0.3296811526293127 F
0.910272084846962 0.8614969282983108 0.3087315780287165 F
0.5924966074818332 0.5670886394619561 0.6461944187233567 F
0.06510130751121077 0.12369461236579773 0.6951003935476117 F
0.6016608400398167 0.05615440485663971 0.6639238422752405 F
0.3346229119906565 0.7169842185722166 0.990589592478658 F
0.6816948428834685 0.2970645973370277 0.024203644668062414 F
