System
1.0
5.534364937256398 0.0231104103043742 -1.127024620408947
-1.5042573262808367 6.297415208251516 -2.2617253889619997
0.0562899252204838 0.0175479058558296 9.292459596382294
Sr Ca Ni P O 
2 2 2 4 16 
direct
0.2712762905655589 0.8050521064819839 0.06734220164403318 Sr
0.728723709434441 0.19494789351801567 0.932657798355967 Sr
0.016985460625937494 0.422813044367369 0.6635148376124163 Ca
-0.016985460625937792 0.5771869556326317 0.336485162387583 Ca
0.6452708704718967 0.8505114177306407 0.5577829094671302 Ni
0.3547291295281035 0.1494885822693593 0.44221709053287006 Ni
0.15649405947205297 0.968292393533547 0.7031614417168058 P
0.8435059405279465 0.03170760646645309 0.29683855828319416 P
0.38525376359026725 0.418111436344101 0.22541302205834526 P
0.6147462364097326 0.5818885636558987 0.7745869779416544 P
0.3574149878861387 0.19917300756594367 0.24197429718365768 O
0.6330125721356478 0.9621164933104502 0.37107216747995136 O
0.5897645749781908 0.4084308266509724 0.6094609151861632 O
0.41023542502180926 0.591569173349027 0.39053908481383615 O
0.1433278141065189 0.43214943152326457 0.11897870864640407 O
0.7359279107650345 0.002631605463869299 0.1259475868103778 O
0.2640720892349656 -0.0026316054638694 0.8740524131896217 O
0.6425850121138611 0.800826992434056 0.7580257028163421 O
0.010836915013257228 0.7356817158099612 0.5968894901281128 O
0.39164603145049004 0.5384448546796877 0.8408962336487787 O
0.9534853758168663 0.10179823054097138 0.6934224719791462 O
0.04651462418313372 0.8982017694590212 0.3065775280208538 O
0.60835396854951 0.46155514532031194 0.15910376635122128 O
0.8566721858934806 0.5678505684767358 0.8810212913535961 O
0.9891630849867429 0.2643182841900382 0.4031105098718873 O
0.36698742786435207 0.037883506689549096 0.6289278325200485 O
