System
1.0
5.527885196203847 0.0680721920696787 1.313622695810561
1.5504269551495038 6.597447132925579 0.7258465736703931
0.1857086881303565 -0.0501259943022506 6.8132217818604195
Ge Mo O 
4 2 12 
direct
0.7473579155839853 0.38823212348390196 0.2139436477399052 Ge
0.7526420844300908 0.7860563522266116 0.6117678765342027 Ge
0.2526420844160138 0.6117678765160977 0.7860563522600951 Ge
0.24735791556990935 0.21394364777338867 0.38823212346579766 Ge
0.7500000000223958 0.9057813627569065 0.0942186372223076 Mo
0.24999999997760367 0.09421863724309397 0.9057813627776925 Mo
0.6316818636124304 0.9588927134989372 0.8203950967260066 O
0.8683181363779582 0.17960490328430348 0.0411072865096121 O
0.7320355302896369 0.6263156752477295 0.08330428502625332 O
0.7679644697349205 0.9166957149317351 0.37368532475959304 O
0.2679644697103628 0.3736853247522742 0.9166957149737468 O
0.5592859046152012 0.6138004151588742 0.6473985755079615 O
-0.0592859045102272 0.35260142451314536 0.38619958482844047 O
0.13168186362204223 0.8203950967156959 0.9588927134903877 O
0.059285904510227104 0.6473985754868548 0.6138004151715595 O
0.440714095384799 0.3861995848411251 0.3526014244920384 O
0.23203553026507928 0.0833042850682649 0.6263156752404109 O
0.3683181363875699 0.04110728650106219 0.17960490327399278 O
