System
1.0
5.410365747386189 0.1796988998924426 0.5827994137631638
1.3813533102051663 4.996174670061061 1.2607937684647126
-0.0069423699661113 0.1734813996345755 5.391110118149628
H C S N O 
3 5 1 1 2 
direct
0.0019959076104524793 0.9473749483759537 0.1950175454892346 H
0.012638544594214459 0.9545900030413143 0.7421035205791562 H
0.2946765471373524 0.19121219041577106 0.3833598985041689 H
0.9616554712340802 0.17067299403460182 0.6476133385029599 C
0.11048440786680579 0.2897144698397109 0.46617572764420784 C
0.005899961768110571 0.5855446590361842 0.38183746072998 C
0.735823755613113 0.36167648615452824 0.722624682230411 C
0.5556747285168938 0.2870269181821629 0.9401425907773334 C
0.6914201614424568 0.6886697700881164 0.5579436185811096 S
0.11329346083398845 0.7450993059058196 0.22628863620644826 N
0.6613681954839185 0.20297620088950272 0.1575819323020866 O
0.32943585789860724 0.3142960540363292 0.8867190484529008 O
