System
1.0
4.11369921009068 -0.0 0.0
0.0 4.11369921009068 -0.0
-0.0 -0.0 4.11369921009068
Hf Hg O 
1 1 3 
direct
0.5 0.5 0.5 Hf
0.0 0.0 0.0 Hg
0.5 0.5 0.0 O
0.5 0.0 0.5 O
0.0 0.5 0.5 O
