System
1.0
9.097474848518477 -0.0 0.0
0.0 9.097474848518477 0.0
0.0 -0.0 9.097474848518477
Na Al Ge Cl O 
8 6 6 2 24 
direct
0.1712531740383609 0.8287468259616392 0.8287468259616392 Na
0.3287468259616391 0.6712531740383608 0.3287468259616391 Na
0.6712531740383608 0.3287468259616391 0.3287468259616391 Na
0.8287468259616392 0.1712531740383609 0.8287468259616392 Na
0.3287468259616391 0.3287468259616391 0.6712531740383608 Na
0.6712531740383608 0.6712531740383608 0.6712531740383608 Na
0.1712531740383609 0.1712531740383609 0.1712531740383609 Na
0.8287468259616392 0.8287468259616392 0.1712531740383609 Na
0.25 0.0 0.5 Al
0.5 0.25 0.0 Al
0.7499999999999999 0.0 0.5 Al
0.0 0.5 0.7499999999999999 Al
0.0 0.5 0.25 Al
0.5 0.7499999999999999 0.0 Al
0.0 0.25 0.5 Ge
0.0 0.7499999999999999 0.5 Ge
0.25 0.5 0.0 Ge
0.7499999999999999 0.5 0.0 Ge
0.5 0.0 0.25 Ge
0.5 0.0 0.7499999999999999 Ge
0.0 0.0 0.0 Cl
0.5 0.5 0.5 Cl
0.857354843238284 0.422817382122787 0.8572757525555394 O
0.14272424744446038 0.1426451567617159 0.422817382122787 O
0.1426451567617159 0.5771826178772126 0.8572757525555394 O
0.9228173821227874 0.642645156761716 0.6427242474444606 O
0.07718261787721278 0.3573548432382839 0.6427242474444606 O
0.3572757525555395 0.07718261787721278 0.642645156761716 O
0.1426451567617159 0.422817382122787 0.14272424744446038 O
0.8572757525555394 0.1426451567617159 0.5771826178772126 O
0.422817382122787 0.14272424744446038 0.1426451567617159 O
0.9228173821227874 0.3573548432382839 0.3572757525555395 O
0.857354843238284 0.5771826178772126 0.14272424744446038 O
0.6427242474444606 0.9228173821227874 0.642645156761716 O
0.3572757525555395 0.9228173821227874 0.3573548432382839 O
0.642645156761716 0.6427242474444606 0.9228173821227874 O
0.422817382122787 0.8572757525555394 0.857354843238284 O
0.8572757525555394 0.857354843238284 0.422817382122787 O
0.6427242474444606 0.07718261787721278 0.3573548432382839 O
0.642645156761716 0.3572757525555395 0.07718261787721278 O
0.5771826178772126 0.8572757525555394 0.1426451567617159 O
0.14272424744446038 0.857354843238284 0.5771826178772126 O
0.5771826178772126 0.14272424744446038 0.857354843238284 O
0.07718261787721278 0.642645156761716 0.3572757525555395 O
0.3573548432382839 0.6427242474444606 0.07718261787721278 O
0.3573548432382839 0.3572757525555395 0.9228173821227874 O
