System
1.0
3.4735690626132723 0.0218605774466098 0.8238573987911487
1.5276015581378501 4.764561925056655 1.1368062075311876
0.0710828128862755 -0.1143942274745582 7.167954508751017
Cd H C O 
1 4 4 4 
direct
0.6664038027000432 0.2395532642354617 0.7284282947502309 Cd
0.13343694631160438 0.9769900521948671 0.25049625935632086 H
0.6043145855166328 0.02715039799331931 0.17092540885654406 H
0.4153541708567926 0.48812524031788107 0.20547340472549902 H
0.8513511420610205 0.45425147733821586 0.286782135412479 H
0.4971991742148458 0.8808972720685239 0.4699281751043068 C
0.45235764061418127 0.8797230641557198 0.26464852805565603 C
0.639198502071986 0.5951889941417713 0.19248023204752282 C
0.8862655076534227 0.5990104137388602 0.9877732960152723 C
0.3350323253438587 0.1242735829481417 0.5321765009829379 O
0.7050937463416662 0.668224129609184 0.5642886463404561 O
-0.029146000216619224 0.8141255715471484 0.8966271813836362 O
0.03139645653057088 0.3572835397109105 0.9233129369691297 O
