System
1.0
8.254811 2.1e-05 2.669358
1.942269 8.02306 2.669358
2.7e-05 2.1e-05 8.675677
Zn Te O 
2 12 26 
direct
0.25600000000000017 0.2560000000000002 0.2560000000000002 Zn
0.7439999999999997 0.7439999999999999 0.7439999999999998 Zn
0.827072000000001 0.417112000000003 0.5274709999999985 Te
0.417112000000003 0.5274709999999985 0.8270720000000013 Te
0.5828879999999969 0.47252900000000153 0.17292799999999886 Te
0.17292799999999883 0.5828879999999971 0.4725290000000015 Te
0.3326240000000027 0.9336709999999969 0.015548999999999917 Te
0.4725290000000015 0.1729279999999989 0.582887999999997 Te
0.9336709999999966 0.015549 0.33262400000000275 Te
0.5274709999999985 0.8270720000000013 0.417112000000003 Te
0.015548999999999986 0.33262400000000275 0.9336709999999968 Te
0.6673759999999973 0.0663290000000032 0.984451 Te
0.984451 0.6673759999999973 0.06632900000000312 Te
0.06632900000000318 0.9844510000000001 0.6673759999999974 Te
0.11531800000000196 0.45616700000000077 0.36422799999999717 O
0.08417399999999729 0.0841739999999973 0.08417399999999732 O
0.6254070000000026 0.38242499999999785 0.701348000000003 O
0.7013480000000029 0.6254070000000027 0.38242499999999785 O
0.7983279999999978 0.30270999999999765 0.04546100000000305 O
0.9545389999999967 0.20167200000000207 0.6972900000000025 O
0.9244050000000001 0.6053240000000032 0.8948200000000028 O
0.39467599999999675 0.1051799999999972 0.07559499999999994 O
0.04546100000000306 0.7983279999999979 0.30270999999999765 O
0.4561670000000007 0.3642279999999971 0.11531800000000192 O
0.6357720000000027 0.8846819999999981 0.5438329999999992 O
0.6972900000000022 0.9545389999999969 0.2016720000000021 O
0.5438329999999993 0.6357720000000029 0.884681999999998 O
0.07559499999999987 0.3946759999999969 0.10517999999999718 O
0.8846819999999981 0.5438329999999992 0.635772000000003 O
0.364227999999997 0.11531800000000202 0.4561670000000007 O
0.6053240000000032 0.894820000000003 0.9244050000000003 O
0.10517999999999719 0.0755949999999999 0.3946759999999969 O
0.20167200000000204 0.6972900000000025 0.954538999999997 O
0.3027099999999976 0.04546100000000311 0.798327999999998 O
0.3745929999999972 0.6175750000000023 0.298651999999997 O
0.9158260000000025 0.9158260000000027 0.9158260000000027 O
0.3824249999999976 0.7013480000000031 0.6254070000000028 O
0.29865199999999686 0.37459299999999734 0.6175750000000022 O
0.6175750000000021 0.298651999999997 0.37459299999999734 O
0.8948200000000025 0.9244050000000001 0.6053240000000032 O
