System
1.0
5.923511295894899 -0.0179116117185294 1.6961665778328543
4.627727650543786 3.69762676467235 1.6961665778328536
-0.0004023332605007 -0.0001403126024078 6.262673327090093
Li V Fe O 
2 3 1 8 
direct
0.9417278343179338 0.9417278343179336 0.3215073357067095 Li
0.05808192757366062 0.05808192757366059 0.6537966061322187 Li
0.7181307710185275 0.7181307710185274 0.7046307703655957 V
0.609811870839239 0.6098118708392389 0.2945586521086414 V
0.3850191724891303 0.38501917248913026 0.7243082531597644 V
0.28595570485239147 0.2859557048523914 0.3038866602609759 Fe
0.889057819320737 0.8890578193207368 0.6760249025704063 O
0.7678895472832449 0.7678895472832447 0.3536732869244071 O
0.6557377137806978 0.6557377137806976 0.9941041445659202 O
0.5596992842371658 0.5596992842371659 0.6468168118009018 O
0.4424712204602343 0.44247122046023435 0.3543175038618961 O
0.34435020034297587 0.3443502003429758 0.006147197369577789 O
0.22671958990121396 0.22671958990121402 0.6533594934007932 O
0.11535034358285574 0.1153503435828557 0.31286838177217785 O
