System
1.0
2.6634946156838004 -4.61330770484295 -0.0
2.663494676756139 4.613307669582817 -0.0
-0.0 0.0 7.009164280417032
Ba Na Mg P O 
1 2 1 2 8 
direct
0.0 0.0 0.49999999999999994 Ba
0.3333330000000032 0.6666669999999968 0.8190140137484198 Na
0.6666669999999968 0.3333330000000032 0.18098598625158038 Na
0.0 0.0 0.0 Mg
0.6666669999999968 0.3333330000000032 0.7442022542886163 P
0.3333330000000032 0.6666669999999968 0.2557977457113835 P
0.8747652617576066 0.23138651678660924 0.8222956671283251 O
0.356620255029546 0.12523473824279294 0.8222956671283251 O
0.7686134832128501 0.6433797449705955 0.8222956671283251 O
0.6666669999999968 0.3333330000000032 0.5248839925111439 O
0.3333330000000032 0.6666669999999968 0.4751160074888562 O
0.23138651678715016 0.35662025502940453 0.1777043328716751 O
0.6433797449704542 0.8747652617572076 0.1777043328716751 O
0.12523473824239345 0.7686134832133906 0.1777043328716751 O
