System
1.0
5.614473333825586 0.0007001522657859 -0.0418525726313358
-0.0156571019747126 5.7902950172819905 -0.0004220553866657
-0.0066306379073976 0.0002538043879261 7.976422928547372
Li La Nd Sb O 
2 3 1 2 12 
direct
0.5029263609900015 0.9993904575725698 0.49775988858156495 Li
0.9976138846428455 0.497053488805585 0.0020111240100161003 Li
0.5124940683326492 0.5514363560092884 0.7493594420862291 La
0.9888824822891233 0.049080668854758897 0.7497353822311064 La
0.4871194562816283 0.4488016153921968 0.2513726890323388 La
0.0151257110164893 0.9421106707015755 0.24758941664830592 Nd
0.9981404813898531 0.49895365788750956 0.49842690200406503 Sb
0.5018731344285624 0.0010123888369602 0.0018585553350069 Sb
0.3057095615376484 0.7175530044155616 0.0533629550086301 O
0.8070741987511768 0.7853734133208882 0.5492605172770102 O
0.7898053867865568 0.8066842359383374 0.9556356417971672 O
0.2843681107870168 0.697538771939412 0.45190457850064314 O
0.21223777192227744 0.19267814515942164 0.05046912850522921 O
0.4095878392011804 0.9720419830312097 0.7584276620976876 O
0.6021264709965922 0.029789403072255 0.2432696635980689 O
0.0916489709429377 0.47051239889855967 0.7416355994255701 O
0.18645668370202012 0.21161778315086544 0.4467069591540968 O
0.9073357768235754 0.5334460119087631 0.25598755592436356 O
0.7080071300836597 0.3069244918679209 0.5455075047468971 O
0.6914655190942224 0.28800205323638745 0.9497168340360022 O
