System
1.0
6.300872703651342 0.0 -0.0
3.150436351825671 5.20656476391167 0.0559675004504932
3.150436351825671 1.7882889299047147 4.89014122132867
Cr Sb O 
2 2 8 
direct
0.5 -3.626845152953619e-17 0.5 Cr
0.5 0.5 -3.481728164089772e-19 Cr
-4.6133616740269774e-17 0.5 0.5000000000000001 Sb
0.5 0.5 0.5000000000000001 Sb
0.2727701404312998 0.2668140750533803 0.2668140750499907 O
0.2635439772013479 0.2580988428149247 0.7148122027823821 O
0.2635439772012801 0.7148122027839224 0.25809884281352 O
0.6936027094653338 0.2668140750533803 0.2668140750499907 O
0.30639729053466624 0.73318592494662 0.7331859249500092 O
0.736456022798652 0.7419011571850751 0.285187797217618 O
0.7364560227987199 0.28518779721607757 0.7419011571864802 O
0.7272298595687002 0.73318592494662 0.7331859249500092 O
