System
1.0
6.279619794786559 -1e-16 3e-16
8e-16 4.803627672803787 -0.0585546955360766
-1e-16 -0.4553359382617779 9.03894471117889
Na Cr C S O 
2 2 2 2 14 
direct
0.6081191171754865 0.9730306368781266 0.8886063280207821 Na
0.1081191171754869 0.026969363121873802 0.111393671979218 Na
0.24219542136530584 0.2599096423370055 0.6646561088350915 Cr
0.742195421365305 0.7400903576629944 0.3353438911649081 Cr
0.2347632295000784 0.4430440056016546 0.9174691732340806 C
0.7347632295000782 0.5569559943983454 0.0825308267659193 C
0.7437765495009527 0.2927972088786239 0.5786490596136468 S
0.24377654950095282 0.7072027911213767 0.4213509403863527 S
0.7480767056438864 0.4083860097594311 0.1996327232765356 O
0.42785592160480784 0.7628717608024378 0.3251293973662115 O
0.05665160406203271 0.7720372738586879 0.3283140143305723 O
0.7457160725147286 0.1212133149648486 0.4389359404739629 O
0.23859729188872553 0.4082911986271563 0.4581798392736914 O
0.7385972918887259 0.5917088013728431 0.541820160726309 O
0.24807670564388573 0.5916139902405684 0.8003672767234645 O
0.556651604062032 0.22796272614131313 0.6716859856694285 O
0.9278559216048073 0.23712823919756235 0.6748706026337884 O
0.7452986184215233 0.8305075618058202 0.12277097731825341 O
0.2452986184215227 0.16949243819417978 0.8772290226817454 O
0.7110994683224723 0.4646357889641848 0.952087927064081 O
0.2457160725147293 0.8787866850351522 0.5610640595260376 O
0.21109946832247362 0.5353642110358153 0.0479120729359196 O
