System
1.0
5.463010113376789 -1.6300889300308092 0.0
-4.102600362825843 3.959215382687892 0.0
0.0 0.0 2.599085075936929
Li Mo O 
1 1 1 
direct
0.2878773260509485 0.04554925953385309 0.0 Li
0.0380166079263832 0.29519791444119703 0.0 Mo
0.6741060660226679 0.6592528260249496 0.0 O
