System
1.0
4.5397926998404765 5.1287362e-09 1.2891388231170793
1.7624351121057065 7.452190622176407 2.43162771292245
-0.009740402516932 0.0665498352889233 8.672470964918679
S I O 
2 4 12 
direct
0.8239431284840555 0.7500000000002441 0.2499999999992238 S
0.1760568715159447 0.2499999999997559 0.7500000000007768 S
0.13555344042469397 0.0740285176035718 0.2525612820276916 I
0.864446559575306 0.9259714823964285 0.7474387179723083 I
0.5378577599539606 0.5740285176040314 0.7525612820172437 I
0.46214224004603893 0.42597148239596877 0.2474387179827572 I
0.0991486996580374 0.6819026562471011 0.13170103893764565 O
0.9127523948481684 0.8180973437514444 0.36829896106810533 O
0.703036299197647 0.706303904074351 0.8595569527105373 O
0.3297332987911209 0.3964994092712874 0.6476929437449801 O
0.7311028440345406 0.206303904075292 0.3595569527107658 O
0.0872476051518319 0.18190265624855548 0.6317010389318949 O
0.900851300341963 0.3180973437528988 0.8682989610623544 O
0.6260743481853291 0.8964994092710096 0.14769294373571 O
0.6702667012088788 0.6035005907287134 0.3523070562550205 O
0.37392565181467163 0.1035005907289912 0.8523070562642902 O
0.2969637008023527 0.2936960959256485 0.14044304728946283 O
0.26889715596545904 0.7936960959247082 0.6404430472892343 O
