System
1.0
5.769772455865775 -0.0 -0.0
0.0 5.769772455865775 -0.0
0.0 0.0 8.303905038423556
K Na Nd Nb O 
2 2 2 2 10 
direct
0.25 0.75 0.0 K
0.75 0.25 0.0 K
0.25 0.25 0.757841301769747 Na
0.75 0.75 0.24215869823025318 Na
0.25 0.75 0.5 Nd
0.75 0.25 0.5 Nd
0.25 0.25 0.255824346584473 Nb
0.75 0.75 0.744175653415527 Nb
0.9819764223011886 0.5180235776988114 0.6715436193515232 O
0.5180235776988114 0.9819764223011886 0.6715436193515232 O
0.25 0.25 0.030513449185594198 O
0.4819764223011886 0.4819764223011886 0.3284563806484773 O
0.9819764223011886 0.9819764223011886 0.6715436193515232 O
0.75 0.75 0.969486550814406 O
0.5180235776988114 0.5180235776988114 0.6715436193515232 O
0.0180235776988113 0.0180235776988113 0.3284563806484773 O
0.4819764223011886 0.0180235776988113 0.3284563806484773 O
0.0180235776988113 0.4819764223011886 0.3284563806484773 O
