System
1.0
-1.5299291384004599 -3.9257894848052257 2.2045826594430853
1.5701081538674089 3.953253643724069 3.00077033674581
-2.6834433040644887 3.9257894979349324 -6.5774844e-09
Fe O 
4 6 
direct
0.3462427817251588 0.038728345398388486 0.6537572181634907 Fe
0.15375721827484104 0.4612716546016115 0.8462427818365094 Fe
0.6537587864309282 0.9612753590701724 0.34624121368027017 Fe
0.8462412135690716 0.5387246409298274 0.15375878631972964 Fe
0.5654423932754872 0.7500000000302232 0.06544239325449543 O
0.2500000000045328 0.7500000000000592 0.4345576067317399 O
0.06543930846460239 0.2500000000303934 0.24999999998618502 O
0.7499999999954504 0.2499999999999404 0.5654393084527992 O
0.43456069153994703 0.24999999996966593 0.9345606915610156 O
0.9345576067199798 0.7499999999697169 0.7500000000137649 O
