System
1.0
5.93099107672509 0.0818716029461264 0.0578916887050972
3.0363985973093714 5.095453178861564 0.057891688062333
3.0363985951802475 1.753065791224614 4.7847415278005645
Li Co Te O 
2 3 1 8 
direct
0.1311038911811022 0.13110389118108212 0.1311038911811113 Li
0.8688961088188979 0.868896108818918 0.8688961088188883 Li
-6.0092630493623476e-18 0.5000000000000002 0.4999999999999999 Co
0.5 7.432498753941985e-17 0.4999999999999999 Co
0.49999999999999994 0.5000000000000001 8.482914143768361e-19 Co
0.4999999999999999 0.5000000000000002 0.49999999999999994 Te
0.2684837859527315 0.2684837859529274 0.2684837859526429 O
0.25909897709702373 0.25909897709680796 0.7179572421336293 O
0.2590989770967378 0.7179572421328565 0.25909897709726387 O
0.7179572421336828 0.259098977096424 0.259098977097166 O
0.2820427578663173 0.7409010229035762 0.7409010229028339 O
0.7409010229032625 0.2820427578671435 0.7409010229027356 O
0.7409010229029758 0.7409010229031922 0.2820427578663705 O
0.7315162140472679 0.7315162140470731 0.7315162140473571 O
