System
1.0
8.240380574569944 0.0 -0.696597900504885
0.0 8.621192459123693 0.0
-0.0291441476052959 0.0 5.376746567575267
P H N O 
4 24 12 4 
direct
0.2503741484684486 0.47082034640645803 0.6701211819468788 P
0.7496258515315519 0.9708203464064583 0.8298788180531212 P
0.7496258515315518 0.5291796535935416 0.3298788180531201 P
0.2503741484684486 0.0291796535935423 0.1701211819468799 P
0.23046989177299076 0.9468642346696275 0.5800491349210009 H
0.7695301082270095 0.4468642346696284 0.919950865078999 H
0.7695301082270095 0.053135765330372 0.41995086507899926 H
0.23046989177299076 0.5531357653303726 0.0800491349210003 H
0.25153985362848436 0.7934120497551327 0.3834894104484707 H
0.748460146371516 0.2934120497551332 0.11651058955152911 H
0.25153985362848436 0.7065879502448673 0.8834894104484706 H
0.5197990581233072 0.1024899265792182 0.1778728526605134 H
0.48020094187669304 0.6024899265792186 0.322127147339487 H
0.4802009418766931 0.8975100734207815 0.8221271473394856 H
0.5197990581233071 0.3975100734207821 0.6778728526605144 H
0.748460146371516 0.2065879502448668 0.6165105895515294 H
0.5855562338338844 0.7143629416994702 0.1279020989354359 H
0.4144437661661162 0.2143629416994697 0.3720979010645639 H
0.0955767507510391 0.2598917165131387 0.548878428638669 H
0.9044232492489613 0.7598917165131386 0.951121571361331 H
0.9044232492489612 0.7401082834868614 0.4511215713613319 H
0.9850099177833372 0.3945014637088022 0.686772220000849 H
0.0955767507510391 0.2401082834868614 0.0488784286386684 H
0.014990082216663102 0.605498536291196 0.3132277799991507 H
0.9850099177833374 0.1054985362911973 0.1867722200008492 H
0.41444376616611617 0.2856370583005299 0.8720979010645634 H
0.5855562338338843 0.7856370583005299 0.6279020989354366 H
0.014990082216663104 0.894501463708804 0.813227779999151 H
0.22139769669187845 0.9084074479177537 0.3981358573719667 N
0.4085309624745865 0.148503052198189 0.2111231553497778 N
0.7786023033081217 0.4084074479177541 0.10186414262803321 N
0.7786023033081217 0.0915925520822459 0.601864142628033 N
0.22139769669187845 0.5915925520822463 0.898135857371967 N
0.5914690375254139 0.6485030521981885 0.288876844650222 N
0.901597017249089 0.846662381543036 0.818803986531653 N
0.40853096247458653 0.3514969478018111 0.7111231553497781 N
0.09840298275091051 0.15333761845696492 0.1811960134683466 N
0.9015970172490891 0.653337618456964 0.31880398653165354 N
0.09840298275091051 0.346662381543035 0.681196013468347 N
0.5914690375254139 0.8514969478018115 0.7888768446502219 N
0.7353770457078832 0.4370920615709168 0.5672712600918143 O
0.2646229542921176 0.5629079384290827 0.43272873990818495 O
0.7353770457078832 0.062907938429083 0.067271260091815 O
0.2646229542921176 0.9370920615709174 0.9327287399081857 O
