System
1.0
4.92337090761784 -0.0142625215962346 3.4963937227663577
1.7976735892780713 4.583464661392783 3.496393725364245
-0.020978887996182 -0.0142625196445876 6.038534762341591
Ca Sn O 
2 2 6 
direct
0.3623634442897629 0.3623634442896495 0.3623634442896239 Ca
0.6376365557102369 0.6376365557103502 0.6376365557103759 Ca
0.15343206440247137 0.1534320644023031 0.15343206440226534 Sn
0.8465679355975285 0.8465679355976966 0.846567935597735 Sn
0.7903716075685596 0.444033646995907 0.03548966406262782 O
0.44403364699607384 0.035489664062746895 0.7903716075684257 O
0.03548966406274538 0.7903716075684715 0.4440336469960154 O
0.20962839243144027 0.5559663530040927 0.9645103359373725 O
0.9645103359372545 0.2096283924315285 0.5559663530039844 O
0.5559663530039256 0.9645103359372534 0.20962839243157502 O
