System
1.0
0.0 5.361427129891978 -0.2136515763978722
4.087216543565268 0.0 0.0
0.0 -1.76465747428732 -6.587840908998045
Ba H O 
2 4 6 
direct
0.8590122785082235 0.25 0.7224663892677551 Ba
0.1409877214917767 0.75 0.2775336107322449 Ba
0.6236044614038013 0.75 0.04757945720680639 H
0.37639553859619884 0.25 -0.0475794572068064 H
0.4017754693569395 0.75 0.7800253716016822 H
0.5982245306430602 0.25 0.21997462839831766 H
0.669556587060158 0.75 0.4363657131312105 O
0.3304434129398429 0.25 0.5636342868687886 O
0.7091902607435403 0.75 0.9349567070146738 O
0.2908097392564595 0.25 0.06504329298532618 O
0.2172699032954776 0.75 0.7058012645211512 O
0.7827300967045229 0.25 0.29419873547884856 O
