System
1.0
-4.438180923412239 4.438180923412239 4.438180923412239
4.438180923412239 -4.438180923412239 4.438180923412239
4.438180923412239 4.438180923412239 -4.438180923412239
Li Bi O 
12 4 12 
direct
0.7062888547733928 0.46245662245038954 5.94755553006976e-18 Li
0.7062888547733926 5.94755553006976e-18 0.46245662245038954 Li
0.7561677676769966 0.2937111452266072 0.2937111452266072 Li
0.5375433775496105 0.5375433775496105 0.2438322323230032 Li
0.5375433775496105 0.2438322323230032 0.5375433775496105 Li
0.46245662245038954 0.7062888547733928 -5.94755553006976e-18 Li
0.4624566224503895 -5.94755553006976e-18 0.7062888547733928 Li
0.2937111452266072 0.2937111452266072 0.7561677676769966 Li
0.2937111452266072 0.7561677676769966 0.2937111452266072 Li
0.24383223232300322 0.5375433775496105 0.5375433775496105 Li
5.94755553006976e-18 0.7062888547733926 0.4624566224503895 Li
-5.94755553006976e-18 0.4624566224503895 0.7062888547733926 Li
0.7184323667210264 0.7184323667210265 0.7184323667210265 Bi
-1.6975264978754764e-18 -1.6975264978754764e-18 0.281567633278974 Bi
1.6975264978754764e-18 0.281567633278974 -1.6975264978754764e-18 Bi
0.281567633278974 1.6975264978754764e-18 1.6975264978754764e-18 Bi
0.503384593495205 0.24591219742084441 1.1816091481120482e-17 O
0.503384593495205 1.1816091481120482e-17 0.24591219742084441 O
0.7540878025791558 0.2574723960743605 0.7540878025791558 O
0.7540878025791558 0.7540878025791558 0.2574723960743605 O
0.24591219742084436 0.5033845934952049 1.3199185605999838e-17 O
0.24591219742084436 1.3199185605999838e-17 0.5033845934952049 O
0.7425276039256399 0.4966154065047952 0.49661540650479513 O
1.1816091481120482e-17 0.503384593495205 0.24591219742084441 O
1.3199185605999838e-17 0.24591219742084436 0.5033845934952049 O
0.496615406504795 0.7425276039256398 0.4966154065047951 O
0.4966154065047951 0.4966154065047951 0.7425276039256398 O
0.2574723960743605 0.7540878025791558 0.7540878025791558 O
