System
1.0
4.0798293295484624 -0.0 0.0
0.0 4.0798293295484624 0.0
-0.0 -0.0 4.0798293295484624
Rb Sb O 
1 1 3 
direct
0.0 0.0 0.0 Rb
0.5 0.5 0.5 Sb
0.5 0.5 0.0 O
0.5 0.0 0.5 O
0.0 0.5 0.5 O
