System
1.0
7.317985551694775 -0.0144932859130683 0.8546452506595712
1.4472084713297233 6.9481415003989895 2.600550186214104
0.1507248818567727 -0.0395488968013011 8.182395498733062
H C O 
24 22 4 
direct
0.8577793869081543 0.5025960182015227 0.5792262658851619 H
0.34642423659374694 0.26547820608775546 0.2889558129887873 H
0.6535757634062525 0.7345217939122445 0.7110441870112123 H
0.6505227198893655 0.33724292090194213 0.1367027298231914 H
0.3494772801106344 0.6627570790980584 0.8632972701768084 H
0.8221943672424269 0.6020166882984157 0.9728700529321829 H
0.17780563275757258 0.39798331170158413 0.027129947067816587 H
0.08600306344051586 0.4817353293869865 0.8205786922437863 H
0.7892494032409294 0.9353765977307367 0.9532521837362172 H
0.2107505967590702 0.0646234022692629 0.046747816263783194 H
0.007597120461559059 0.8187962089209425 0.042710617930862955 H
0.9924028795384415 0.181203791079057 0.9572893820691374 H
0.9139969365594831 0.5182646706130136 0.17942130775621384 H
0.1714315184430283 0.976445875039797 0.7822191601732637 H
0.8285684815569717 0.023554124960202302 0.21778083982673696 H
0.02254797773119159 0.149510236289613 0.4220107487100596 H
0.9774520222688086 0.8504897637103868 0.5779892512899392 H
0.4914164409538772 0.9608752381544922 0.8477874845311332 H
0.5085835590461225 0.03912476184550791 0.152212515468867 H
0.14222061309184564 0.49740398179847695 0.4207737341148385 H
0.5272817364995099 0.9445252357585817 0.37887561467944647 H
0.14927121191404955 0.2216715052543834 0.6552408208906523 H
0.8507287880859501 0.7783284947456165 0.3447591791093464 H
0.47271826350049007 0.055474764241418305 0.6211243853205535 H
0.440265403972845 0.5626027503052998 0.803699960346627 C
0.19858534257126342 0.8293571484135204 0.421205133878958 C
0.8014146574287356 0.17064285158647952 0.5787948661210416 C
0.3311586256052853 0.6956528202696991 0.34495699156852505 C
0.668841374394715 0.3043471797303007 0.6550430084314742 C
0.2760568193466653 0.5259398568232285 0.355486818366719 C
0.7239431806533343 0.47406014317677153 0.6445131816332806 C
0.39002334149191087 0.39652540663109137 0.28085750819367317 C
0.6099766585080878 0.6034745933689085 0.7191424918063268 C
0.5597345960271547 0.43739724969469995 0.19630003965337256 C
0.6192184147144907 0.6049118473375064 0.18531503434121932 C
0.4947457147825843 0.2628471132551919 0.7396153330115721 C
0.8099855161066435 0.6312854472687667 0.09712569464038835 C
0.19001448389335696 0.36871455273123327 0.9028743053596119 C
0.8558631761731561 0.8274406988438003 0.06868976602674005 C
0.1441368238268442 0.1725593011562005 0.93131023397326 C
0.7868865575046329 0.8886173790979576 0.22931128962498262 C
0.21311344249536698 0.11138262090204192 0.7706887103750173 C
0.5743220735230811 0.9127297477932927 0.2570194267094447 C
0.42567792647691877 0.0872702522067071 0.7429805732905547 C
0.5052542852174151 0.7371528867448083 0.26038466698842744 C
0.3807815852855102 0.39508815266249353 0.8146849656587806 C
0.9201403390098645 0.25242566648134607 0.45285985757519737 O
0.8079586788382859 0.9933903470793013 0.630288351222414 O
0.19204132116171457 0.0066096529206989 0.3697116487775863 O
0.07985966099013495 0.7475743335186543 0.547140142424803 O
