System
1.0
3.92958721e-08 5.787631652772385 1.9258414e-08
-5.3750429343395965 2.893816282483791 0.198073902944668
-3.5556300486482106 2.0889957e-09 7.889811038279768
Na Cr O 
8 2 6 
direct
0.9295914185082941 0.788020489161021 0.9544934564268789 Na
0.28238809229966694 0.7880204892076922 0.4544934564153873 Na
0.8547832975440498 0.6045322798571331 0.6276671982646385 Na
0.4873135157719031 0.3922170184195994 0.8501527179128439 Na
0.5406864225553024 0.6045322798802616 0.1276671982586257 Na
0.12046846580965864 0.39221701843473544 0.3501527179090716 Na
0.7473497692991274 0.22466505063728723 0.5303259709204814 Na
0.027985180077084913 0.22466505063649897 0.030325970920342303 Na
0.3333335656289214 0.03836613073694588 0.739589872403399 Cr
0.628301303619085 0.038366130787936596 0.23958987238964813 Cr
0.6370372671650236 0.6961599128425324 0.8460244548916038 O
0.6668008200092727 0.6961599128798165 0.3460244548805935 O
0.33330267709421096 0.3535468438677594 0.6107198110654923 O
0.013934560478404594 0.11737227445661018 0.7933945181191607 O
0.3131504790167814 0.3535468438491545 0.1107198110686757 O
0.8686941651232175 0.11737227434503113 0.2933945181531564 O
