System
1.0
0.0 5.240596650551254 -0.0049170551598475
7.744674999174339 0.0 0.0
0.0 -0.1285702017016922 -5.392258619919243
Mg Ti Sb O 
4 2 2 12 
direct
0.49117896001321526 0.75 0.44002398665446546 Mg
0.5088210399867845 0.25 0.5599760133455347 Mg
0.9937877902556703 0.75 0.9627699396908831 Mg
0.0062122097443297 0.25 0.0372300603091168 Mg
0.49999999999999994 0.5 4.1368957045646804e-20 Ti
0.49999999999999994 0.0 4.1368957045646804e-20 Ti
1.3337781822088637e-18 0.5 0.5 Sb
1.3337781822088637e-18 0.0 0.5 Sb
0.339844594816722 0.5704073892138187 0.6834833347473603 O
0.6286498251871142 0.75 0.075341464736323 O
0.6601554051832779 0.07040738921381878 0.3165166652526397 O
0.1342381950055597 0.25 0.4180332504356846 O
0.1850169988029185 0.9286969249733138 0.172059864670426 O
0.8149830011970813 0.07130307502668588 0.8279401353295739 O
0.1850169988029185 0.571303075026686 0.172059864670426 O
0.339844594816722 0.9295926107861813 0.6834833347473603 O
0.8657618049944402 0.75 0.5819667495643156 O
0.6601554051832779 0.4295926107861813 0.3165166652526397 O
0.8149830011970813 0.428696924973314 0.8279401353295739 O
0.3713501748128857 0.25 0.924658535263677 O
