System
1.0
6.083265827416836 0.0 -2.194235073619451
0.0 6.733810420172842 0.0
-0.0173953024750912 0.0 6.919156512613794
Sr Li B O 
4 4 4 12 
direct
0.19783430587338796 0.12441078195275439 0.8648737718540261 Sr
0.8021656941266122 0.8755892180472455 0.13512622814597355 Sr
0.6978343058733877 0.3755892180472457 0.3648737718540263 Sr
0.30216569412661204 0.6244107819527543 0.6351262281459737 Sr
0.6016208219582868 0.0909252654696052 0.694689261008283 Li
0.8983791780417132 0.5909252654696048 0.805310738991717 Li
0.39837917804171297 0.909074734530395 0.3053107389917173 Li
0.10162082195828699 0.409074734530395 0.1946892610082827 Li
0.1899102508221204 0.1357370470799832 0.4260755224918014 B
0.6899102508221204 0.3642629529200168 0.9260755224918013 B
0.8100897491778792 0.8642629529200166 0.5739244775081986 B
0.3100897491778795 0.6357370470799832 0.0739244775081988 B
0.8403304593756616 0.8863394900302116 0.7826998081969099 O
0.3925590355650298 0.8011345307061629 0.007256161915556819 O
0.15966954062433777 0.11366050996978849 0.2173001918030904 O
0.34033045937566186 0.6136605099697883 0.2826998081969093 O
0.8042166531757432 0.5099156087546615 0.062395340457531936 O
0.3042166531757438 0.9900843912453384 0.5623953404575323 O
0.19578334682425627 0.49008439124533876 0.9376046595424677 O
0.8925590355650289 0.698865469293837 0.5072561619155568 O
0.1074409644349704 0.3011345307061633 0.4927438380844431 O
0.659669540624338 0.38633949003021145 0.71730019180309 O
0.6957833468242566 0.0099156087546612 0.43760465954246824 O
0.6074409644349708 0.19886546929383697 0.9927438380844431 O
