System
1.0
5.161098156089132 0.522757356815672 1.0422443893378048
0.9514907967725702 5.099388551883551 1.0424147322713342
0.5681703692757365 0.5227732382208824 5.23441490404066
Na C O 
4 1 4 
direct
0.9422232188969739 0.4268391987912499 0.42684112218876813 Na
0.42683628487154046 0.942199720584114 0.42683529003743237 Na
0.42683567409903056 0.4268280582905244 0.9422301636396665 Na
0.8220875369969608 0.8221198901750802 0.8221148030644782 Na
0.04046208579059161 0.04046162492780211 0.040454477730771 C
0.1575576079332686 0.15756588941548272 0.1575640138815125 O
0.871675056724706 0.8716662486015481 0.24897563827152516 O
0.871666284737116 0.24898774677387675 0.871652891635202 O
0.24899724994981762 0.8716706224403202 0.8716725995506563 O
