System
1.0
3.795650691091835 0.1530810931882524 0.2162474215064556
1.251091645750934 4.397335977957677 0.2085726575850374
0.41235537143418 0.0803856062372152 17.439715936648028
Cd H C O 
1 20 12 4 
direct
0.7727246830145478 0.9481275852882743 0.8511851876773109 Cd
0.33031199424310276 0.18614654787895016 0.5098866321956852 H
0.0871259487480872 0.658968643055491 0.5896881168303528 H
0.43628698059279947 0.7588305384339961 0.0524271381349123 H
0.766322173401738 0.7645279305118757 0.16472644628907201 H
0.21669564528846808 0.7104190152717164 0.192478971300339 H
0.5438374085307522 0.7319558981317011 0.3057398806447703 H
-0.004058621288779101 0.6749040445453165 0.3330731053178631 H
0.31778773591462645 0.6998552838179369 0.44740430846062546 H
0.7698244762513224 0.643509162019479 0.4748129625426231 H
-0.011535760882656372 0.8170183651477827 0.025740736738955203 H
0.5372178706937092 0.6072110718341758 0.6177274252886447 H
0.00877437514224669 0.28938764895491587 0.08479254136806431 H
0.4591031288406362 0.23747354900493078 0.1127066734615244 H
0.7768822204347576 0.2533576991269349 0.22771007559053022 H
0.22907604565106934 0.19689232976926402 0.2550378047099789 H
0.551403268230606 0.22182427532211135 0.3693813344835648 H
0.0033747996956594926 0.1649876580837343 0.3967626854742168 H
0.10999989153130009 0.1374673086624725 0.649870383613704 H
0.557625646769472 0.07939714684553471 0.6766621956138794 H
0.780453393820968 0.13227318759290752 0.53774495324877 H
0.41272693033497093 0.48908272574315165 0.9604914079958521 C
0.2485356632004236 0.6343633238009525 0.0365721146200228 C
0.19293938910674122 0.413933762436808 0.10208611750073061 C
0.030777575916652502 0.5854382240324412 0.1760544162961611 C
0.9653623220123495 0.3766538465555287 0.2436464905339489 C
0.8070493158461255 0.5517348431789301 0.31725947301100177 C
0.35329990244007087 0.4825978413680796 0.6003470529121356 C
0.5815057350454881 0.5201529782067861 0.45882549991864613 C
0.5159625950401785 0.3112507459679966 0.5263807672919092 C
0.2975464165562594 0.2619919795335989 0.6658045582737184 C
0.13291993595481874 0.40707887800916104 0.7418831306643023 C
0.7401242430112698 0.34511509171803234 0.3852194428522867 C
0.36781888858982137 0.663215025241844 0.8990455951578894 O
0.17773373286791758 0.2328119246445409 0.803306323588145 O
0.949798259519963 0.6916221513883829 0.7416292060946273 O
0.5956297899325244 0.2044827688742662 0.9607608443032364 O
