System
1.0
5.053468217258827 0.1222372219831702 -0.0308037351282462
0.1197271124863938 5.497307138377883 -0.026169269252145
-0.0487029201914544 -0.0670373729113782 6.071595461265546
Li Cu P O 
3 3 2 8 
direct
0.4897968562287843 0.15674380568205426 0.0007741328804365 Li
0.9854478106531994 0.3322030591276063 0.7507669114772523 Li
0.0048122424661974 0.8502301444650748 0.5024687432488187 Li
0.5236621257765863 0.6324567328022257 0.7580636965671499 Cu
0.5237437066908175 0.6241416776861727 0.2409053488669061 Cu
0.9529199792495904 0.35959224232706527 0.2492888127047398 Cu
0.008546621632344003 0.8457187869644267 0.9946904778284669 P
0.48668584126241227 0.1620999655311742 0.5041100436934867 P
0.8822919170421778 0.1081943632574477 0.9842433782081754 O
0.3146566434979043 0.8519760597367513 1.280385698030037e-05 O
0.9200330298173424 0.6935391268413402 0.7891202535981249 O
0.3740493332443183 0.2999876237051293 0.712953870229824 O
0.7948783637213763 0.1614567497056657 0.5083865153073152 O
0.38653631983324027 0.9004565717461165 0.5013272261675716 O
0.3780807901175871 0.2954657395867938 0.2919869605556403 O
0.9164474187661407 0.7257373508349685 0.2109018248091221 O
