System
1.0
5.004955255750299 0.0326595740377735 0.1027050459633525
0.0585855630025758 5.422263881280613 0.0666026302758167
0.1519152671596106 0.1552069879600134 6.602662799157652
Li Nb Fe O 
4 1 3 8 
direct
-0.0086950753846853 0.0776693415995963 0.3841628338839236 Li
0.5141856659528404 0.43441280173869223 0.8762270987095272 Li
-0.0104929554278498 0.5800026515553219 0.1251533097008316 Li
0.5180783795969713 0.9002927915451184 0.6251047213579048 Li
0.4890018164174784 0.9296928525982213 0.1265838423564827 Nb
0.03006689912507671 0.11743235152673062 0.8133520296854102 Fe
0.46039928369998157 0.4288825687536745 0.42502191405782974 Fe
0.042197812754243315 0.5211247306681033 0.626088441530175 Fe
0.6271968584720765 0.0779908269655075 0.8789092638417795 O
0.5978680778943289 0.08595463474358199 0.363108127912552 O
0.12357987324569435 0.4366247017549234 0.8914307155057934 O
0.09967751820893642 0.4227257746749568 0.3620617990036828 O
0.6554306583219467 0.5643511458909748 0.6224680799844154 O
0.5955445236920419 0.5953096835660132 0.1405897981910199 O
0.12591574847971934 0.8905651388456874 0.6218611830809532 O
0.11364791495119692 0.9369660035728893 0.1178748411977172 O
