System
1.0
3.7633047107304938 -5.2072493e-09 -1.01644961743486
-0.2745376882992279 3.753277925174733 -1.0164496151347493
0.0222282116690128 0.0239142193147512 7.557155894401188
K Hg O 
2 1 2 
direct
0.6697712093620268 0.6697712093620933 0.3395424187240657 K
0.33022879063797356 0.3302287906379066 0.6604575812759346 K
0.0 0.0 0.0 Hg
0.8578412461477407 0.8578412461476165 0.7156834922954685 O
0.14215875385225943 0.1421587538523835 0.2843165077045314 O
