System
1.0
5.487821075264271 -0.008385512156003 0.0248203038263021
0.4167280974839143 5.638290483807047 0.0080148011267088
2.2590267491282714 0.7998979574663228 8.348583070233907
Rb Li Si O 
4 4 2 8 
direct
0.47150210333916576 0.8473117893833223 0.7347681516569519 Rb
0.5284978966608347 0.1526882106166775 0.2652318483430484 Rb
0.789135691277051 0.7245770453954559 0.020865727505056695 Rb
0.21086430872294842 0.2754229546045438 0.9791342724949436 Rb
0.9297897811485156 0.1843358110144034 0.4379968270487392 Li
0.07021021885148433 0.8156641889855967 0.5620031729512608 Li
0.696041926949518 0.592548520940094 0.4201268823239538 Li
0.30395807305048134 0.4074514790599058 0.579873117676046 Li
0.8535167498949344 0.3139488293810406 0.7212737586985379 Si
0.14648325010506516 0.6860511706189595 0.2787262413014621 Si
0.001016830216600448 0.5615833163023612 0.7192362065640727 O
-0.0010168302166004024 0.4384166836976395 0.2807637934359273 O
0.9176717001029405 0.8660573011261441 0.3819377321107447 O
0.08232829989705906 0.1339426988738559 0.6180622678892552 O
0.2688855077473712 0.7943090953864937 0.0940154684826938 O
0.7311144922526285 0.20569090461350642 0.9059845315173056 O
0.3624154475030688 0.641657493227817 0.3856683451449456 O
0.6375845524969309 0.3583425067721833 0.614331654855054 O
