System
1.0
5.341455234201792 -0.0012216316739844 3e-16
-2.657275531021601 4.6192645696603 3e-16
-0.0 -0.0 4.9032364197770875
Cu Si N 
2 4 6 
direct
-2.4732100628847946e-14 0.6323618895084723 0.5088100070571501 Cu
2.4827282150201152e-14 0.3676381104915283 0.0088100070571504 Cu
0.3360148063730727 0.3272430857417179 0.4902377016362154 Si
0.6639851936269161 0.9912282793687379 0.4902377016362154 Si
0.6639851936269273 0.672756914258282 0.9902377016362157 Si
0.33601480637308395 0.0087717206312621 0.9902377016362157 Si
0.39792139593858533 0.3396714662028176 0.8462359571993026 N
0.6020786040613673 0.9417500702641509 0.8462359571993026 N
0.6020786040614142 0.6603285337971824 0.3462359571993022 N
0.39792139593863274 0.058249929735849006 0.3462359571993022 N
7.925279570987788e-14 0.7376605851824454 0.906242665271814 N
-7.916322064846271e-14 0.2623394148175546 0.4062426652718137 N
