System
1.0
4.625432895757171 0.0 -0.0
0.0 4.625432895757171 -0.0
-2.3127164478785853 -2.3127164478785853 7.40594464588272
Mn N Cl 
1 2 4 
direct
0.0 0.0 0.0 Mn
0.34378674331887393 0.34378674331887393 0.687573486637748 N
0.6562132566811261 0.6562132566811261 0.3124265133622515 N
0.1477067884083234 0.1477067884083234 0.2954135768166539 Cl
0.8522932115916765 0.8522932115916765 0.7045864231833463 Cl
0.0 0.5 0.0 Cl
0.5 0.0 0.0 Cl
