System
1.0
2.8048660719746734 -3.82503692043e-05 4.807360462140519
1.2998653259697779 2.48548349291824 4.8073604621285835
-6.31728241499e-05 -3.82516121015e-05 5.565787306864405
Li Mo N 
1 1 2 
direct
0.413397070274645 0.4133970702750466 0.4133970702747376 Li
0.5858724523941504 0.5858724523940253 0.5858724523941212 Mo
0.8424907853105188 0.8424907853067957 0.8424907853096587 N
0.9969396920206887 0.9969396920241351 0.996939692021485 N
