System
1.0
-0.0220279463447951 0.0 -5.621905567451969
-2.9304077773412285 -4.903148609557172 0.2411716519542721
-2.9304077773412285 4.903148609557172 0.2411716519542721
Li Ca Mg Si N 
4 2 1 2 6 
direct
0.6256518647859394 0.9883572281760388 0.33241577920678184 Li
0.6256518647859394 0.3324157792067816 0.9883572281760388 Li
0.3743481352140605 0.011642771823961234 0.6675842207932179 Li
0.3743481352140605 0.6675842207932179 0.011642771823961345 Li
-3.4556254324920203e-18 0.3222350897458524 0.6777649102541475 Ca
3.483268471415208e-18 0.6777649102541475 0.3222350897458526 Ca
0.0 0.0 0.0 Mg
0.367997873717568 0.3198124081580431 0.3198124081580432 Si
0.632002126282432 0.6801875918419569 0.680187591841957 Si
0.31134474554311536 0.6231894393608283 0.6231894393608284 N
0.6886552544568917 0.37681056063917157 0.3768105606391717 N
0.253009053976963 0.031066186295403187 0.3207868807511283 N
0.253009053976963 0.3207868807511283 0.031066186295403194 N
0.7469909460230368 0.9689338137045965 0.6792131192488715 N
0.7469909460230368 0.6792131192488714 0.968933813704597 N
