System
1.0
5.4904108607452615 -0.1187899716949842 -2.3859683148305093
-1.9028337052175048 5.151499478050811 -2.3859682474151067
0.0032620352020525 0.0045750610079604 6.395696183726565
Na H N 
4 8 4 
direct
0.1020995527562631 0.6020995527468654 0.20419910549391398 Na
0.39790044724373697 0.8979004472531347 0.7958008945060866 Na
0.1479004472437367 0.1479004472531351 0.29580089450608604 Na
0.8520995527562633 0.8520995527468654 0.7041991054939136 Na
0.5418839131281444 0.9714327887356015 0.35497559778089194 H
0.6164581909091885 0.1869093153005736 0.645025402165452 H
0.02856721117637923 0.4581160868260485 0.6450254020830156 H
0.8130906847862867 0.3835418091377753 0.3549755979706354 H
0.7081160868718555 0.7785672112643985 0.14502540221910562 H
0.4369093152137131 0.3664581908622247 0.14502540202936237 H
0.22143278882362066 0.29188391317395146 0.8549745979169845 H
0.6335418090908111 0.5630906846994262 0.8549745978345481 H
0.24558801444394876 0.2455880144435043 -1.539735777347104e-11 N
0.00441198555605123 0.5044119855564961 0.5000000000153975 N
0.7544119855560513 0.7544119855564961 1.5397253058958184e-11 N
0.49558801444394895 0.9955880144435039 0.49999999998460226 N
