System
1.0
2.9613908837500253 -8.87858710577e-05 -0.0086651046914927
-1.480628130180988 2.564689507573589 -4.39620122e-08
0.0178819630235651 0.0103234858137501 8.735542610535111
Na Cr N 
2 1 2 
direct
0.6677717076897236 0.33388584884482864 0.3025377548421786 Na
0.3322282923102768 0.6661141511551711 0.6974622451578215 Na
0.0 0.0 0.0 Cr
0.6661676543968005 0.333084327198402 0.8797752469564111 N
0.33383234560319974 0.6669156728015978 0.1202247530435886 N
