System
1.0
4.702403002612454 0.0167609526366682 -2.2496130616971475
-2.8395486846520748 4.312935361178257 -0.7135685980204554
0.0110351952600773 -0.0167609527486228 5.212794723732039
Ca Be N 
2 4 4 
direct
-1.416667359546406e-16 0.7499999999999999 0.7499999999999999 Ca
-1.620677429748942e-17 0.25 0.25 Ca
0.7519816953744194 0.1259908476872152 0.6259908476872403 Be
0.4999999999999748 0.6259908476871859 0.8740091523128625 Be
0.24801830462558053 0.8740091523127849 0.3740091523127597 Be
0.5000000000000251 0.3740091523128141 0.1259908476871372 Be
0.5000000000000295 0.16953042379831582 0.3304695762016427 N
0.8390618475965567 0.6695304237982771 0.16953042379824737 N
0.16093815240344309 0.33046957620172296 0.8304695762017525 N
0.4999999999999703 0.8304695762016842 0.6695304237983574 N
