System
1.0
2.4671673876398543 2.495826e-10 -0.4733629938961624
-0.0156405405245343 4.3768909369624565 -0.0815187118160443
-0.0014560911033431 -0.0440589373308855 6.658529784988387
B N 
4 4 
direct
-3.5188886408900005e-05 0.001524204785922 -7.1377772779e-05 B
0.799916800059183 0.5703480518510086 0.5998336001183487 B
0.13441371453369633 0.6221994745891161 0.2688274290673788 B
0.46835345519717914 0.5008132585362894 0.9367059103943379 B
0.019444873558389704 0.6579736160363021 0.038889747116800405 N
0.4936591374203991 0.15682095338569219 0.9873172748407822 N
0.3529648666720845 0.5526293032437385 0.7059297333441704 N
0.687784341445471 0.6091911375719334 0.37556868289096207 N
