System
1.0
5.98083260348513 2.304651816708236 -0.1320226826463828
-5.98083260348513 2.304651816708236 0.1320226826463828
-3.837837420060764 0.0 4.074363723856417
Li Mn O F 
4 2 4 2 
direct
0.32400839070473786 0.6747376856775744 0.7369476597574409 Li
0.3252623143224259 0.6759916092952628 0.2369476597574409 Li
0.6747376856775743 0.324008390704738 0.763052340242559 Li
0.6759916092952627 0.325262314322426 0.26305234024255936 Li
-6.289035405471356e-05 -6.289035405469755e-05 0.7499999999999999 Mn
6.28903540546006e-05 6.289035405460131e-05 0.24999999999999997 Mn
0.15412425640890862 0.8465434558634088 0.7306474538809332 O
0.15345654413659102 0.8458757435910919 0.2306474538809338 O
0.8465434558634086 0.15412425640890873 0.7693525461190667 O
0.8458757435910917 0.15345654413659104 0.26935254611906684 O
0.4999949663453048 0.4999949663453049 0.7499999999999999 F
0.500005033654695 0.5000050336546951 0.24999999999999997 F
