System
1.0
6.355969768638316 -0.0031860480999521 -0.9708527621202971
-1.129934091526702 6.254727158949199 -0.970852875450076
-0.0026633443602157 -0.0031859517863071 6.429689087983573
Ho W O 
6 1 12 
direct
0.31442486857182905 0.6115858608845535 0.1434210607239393 Ho
0.6115868608846058 0.143421060723829 0.314424868571996 Ho
0.3884131391153939 0.8565789392761708 0.6855751314280041 Ho
0.6855761314281755 0.38841413911544637 0.8565789392760608 Ho
0.14342006072376806 0.3144248685719285 0.6115858608845316 Ho
0.8565799392762316 0.6855751314280719 0.3884141391154683 Ho
0.0 0.0 0.0 W
0.9657523844444224 0.07572932042980118 0.2979068434993205 O
0.7020941565009767 0.03424661555566339 0.9242706795701144 O
0.43195196869930835 0.1772692196233605 0.5891961047413934 O
0.29790584349902277 0.965753384444337 0.07572932042988569 O
0.034247615555570175 0.9242706795701991 0.7020931565006793 O
0.410803895258672 0.56804803130068 0.8227307803766167 O
0.8227317803766122 0.4108048952586272 0.5680490313006965 O
0.5680490313006961 0.8227307803766396 0.4108038952586066 O
0.5891961047413277 0.4319519686993196 0.1772692196233834 O
0.17726821962338787 0.5891951047413727 0.43195096869930366 O
0.0757293204297808 0.2979068434991998 0.9657533844443015 O
0.9242716795702237 0.7020931565008001 0.03424661555569891 O
