System
1.0
8.108066090379204 -0.0242753190098938 5e-16
-0.9331088674936031 8.054230742813061 5e-16
-0.0 -0.0 8.01909033260473
K V O 
8 4 18 
direct
0.463105894826903 0.5368941051730969 0.25 K
0.5368941051730967 0.46310589482690306 0.7500000000000001 K
0.9875328218125682 0.012467178187431902 0.25 K
0.012467178187431918 0.9875328218125684 0.7500000000000001 K
0.9051461826912693 0.5408481639380762 0.25 K
0.5408481639380762 0.9051461826912693 0.7500000000000001 K
0.0948538173087312 0.4591518360619232 0.7500000000000001 K
0.45915183606192317 0.0948538173087312 0.25 K
0.7746385707056684 0.22536142929433073 0.9770640751385172 V
0.2253614292943307 0.7746385707056685 0.0229359248614825 V
0.7746385707056684 0.22536142929433073 0.5229359248614828 V
0.2253614292943307 0.7746385707056685 0.4770640751385177 V
0.32160479724965596 0.16441946505384034 0.7500000000000001 O
0.1644194650538403 0.32160479724965607 0.25 O
0.7686128938734395 0.2313871061265603 0.7500000000000001 O
0.23138710612656027 0.7686128938734397 0.25 O
0.6454006600901454 0.35459933990985415 0.05716623484954451 O
0.35459933990985404 0.6454006600901456 0.9428337651504551 O
0.6454006600901454 0.35459933990985415 0.4428337651504555 O
0.35459933990985404 0.6454006600901456 0.557166234849545 O
0.02466575470237871 0.7163711303827691 0.9635649297230325 O
0.9753342452976215 0.28362886961723105 0.03643507027696761 O
0.283628869617231 0.9753342452976216 0.5364350702769675 O
0.9753342452976215 0.28362886961723105 0.4635649297230325 O
0.7163711303827689 0.0246657547023787 0.03643507027696761 O
0.8355805349461597 0.6783952027503434 0.7500000000000001 O
0.7163711303827689 0.0246657547023787 0.4635649297230325 O
0.02466575470237871 0.7163711303827691 0.5364350702769675 O
0.283628869617231 0.9753342452976216 0.9635649297230325 O
0.6783952027503432 0.8355805349461599 0.25 O
