System
1.0
5.017084803607557 5.381252515471555 0.0
-0.0 5.381252515471555 5.381252515471555
5.017084803607557 -0.0 5.381252515471555
Sb H O 
4 4 12 
direct
-3.878925305552727e-17 0.49999999999999994 3.878925305552727e-17 Sb
7.223304940698838e-17 -5.4061820996131325e-17 0.49999999999999994 Sb
0.5 2.0618024644670216e-17 -1.4493302351265021e-18 Sb
0.0 0.0 0.0 Sb
0.18411711209593354 0.5658828879040662 0.18411711209593354 H
0.5658828879040663 0.18411711209593346 0.5658828879040662 H
0.8158828879040664 0.4341171120959333 0.8158828879040663 H
0.43411711209593346 0.8158828879040662 0.4341171120959335 H
0.312943243480734 0.31294324348073366 0.9370567565192656 O
0.9370567565192657 0.9370567565192658 0.3129432434807339 O
0.9370567565192659 0.3129432434807338 0.31294324348073377 O
0.31294324348073377 0.9370567565192656 0.9370567565192658 O
0.6635992232437455 0.08640077675625459 0.6635992232437454 O
0.06294324348073418 0.6870567565192656 0.6870567565192658 O
0.6870567565192657 0.6870567565192657 0.06294324348073406 O
0.0629432434807342 0.06294324348073384 0.6870567565192657 O
0.9135992232437457 0.3364007767562544 0.9135992232437453 O
0.6870567565192659 0.06294324348073395 0.06294324348073403 O
0.08640077675625456 0.6635992232437454 0.08640077675625464 O
0.3364007767562545 0.9135992232437453 0.3364007767562545 O
