System
1.0
6.993193769546282 -5.0997667e-08 -0.0
-3.4965968406078702 6.056282888229651 0.0
0.0 -0.0 10.047960867630305
Ge Bi O 
6 4 18 
direct
0.29493123316096587 0.0751297727935177 0.25 Ge
0.21980146036696543 0.2949312331601974 0.75 Ge
0.07512977279400014 0.7801985396333201 0.75 Ge
0.9248702272059997 0.2198014603666798 0.25 Ge
0.7801985396330346 0.7050687668398024 0.25 Ge
0.7050687668390347 0.9248702272064824 0.75 Ge
0.3333330000000031 0.6666669999999967 0.0321174525197842 Bi
0.6666669999999968 0.3333330000000032 0.9678825474802162 Bi
0.3333330000000031 0.6666669999999967 0.46788254748021596 Bi
0.6666669999999968 0.3333330000000032 0.5321174525197838 Bi
0.35572610000193733 0.42801772992939313 0.6021394493762106 O
0.4280177299297031 0.0722916299279543 0.1021394493762103 O
0.7942299634629949 0.7270580675766968 0.75 O
0.06717189588708701 0.7942299634632773 0.25 O
0.4280177299297031 0.0722916299279543 0.3978605506237896 O
0.9328281041129131 0.20577003653672218 0.75 O
0.20577003653700468 0.2729419324233036 0.25 O
0.07229162992776565 0.644273899998561 0.6021394493762106 O
0.9277083700722345 0.3557261000014387 0.1021394493762103 O
0.6442738999980623 0.5719822700706071 0.1021394493762103 O
0.5719822700702969 0.9277083700720457 0.6021394493762106 O
0.5719822700702969 0.9277083700720457 0.8978605506237894 O
0.6442738999980623 0.5719822700706071 0.3978605506237896 O
0.9277083700722345 0.3557261000014387 0.3978605506237896 O
0.07229162992776565 0.644273899998561 0.8978605506237894 O
0.35572610000193733 0.42801772992939313 0.8978605506237894 O
0.2729419324240916 0.0671718958865813 0.75 O
0.727058067575908 0.9328281041134187 0.25 O
