System
1.0
5.4689585917022505 -0.1452132932428955 1.6198397231171013
1.2577833292768699 6.128575584218202 -0.1273515638578469
0.0685869867523977 -0.2416577491365352 9.010349110772523
H C S N 
8 10 4 4 
direct
0.40133319416532404 0.1658631571704761 0.5456562339468347 H
0.4013340513323344 0.665863312084383 0.04565676934562169 H
0.0473638614024922 -0.011022926677283598 0.7227316432496637 H
0.047363816928501376 0.4889767235491543 0.2227308872301769 H
0.7426537592708253 0.684240550987775 0.48369687776141623 H
0.7426539589270634 0.18423982703690084 0.983696445077693 H
0.4703066498688646 0.0471616248147249 0.12035240622888481 H
0.47030754444276907 0.547161762189776 0.6203530245218294 H
0.5672630122499472 0.3150892685053205 0.2089500780903262 C
0.5672630728107433 0.8150886412014072 0.7089495499251466 C
0.26265552494500544 0.597322123823356 0.8520201307145209 C
0.26265762777755514 0.0973234674009817 0.3520202561934566 C
0.926602857825297 0.4293593675580674 0.020081972262513653 C
0.9266039222086112 0.9293600442043681 0.5200801292128029 C
0.07059338894750122 0.5078938839577471 0.1005337260762924 C
0.07059347889151818 0.0078940035191024 0.6005329987779815 C
0.2621627238736421 0.603686581473281 0.004692470197117497 C
0.26216321604226206 0.10368691032237501 0.5046924040906876 C
0.015478448333310628 0.9850287278674792 0.3257885258021798 S
0.015480982878791797 0.4850297490825271 0.8257872758399065 S
0.49967083026600984 0.025305873472642505 0.8471064868174267 S
0.4996712960597406 0.5253050449810723 0.3471060253572329 S
0.7453334776294208 0.8005055516850518 0.5673893441612486 N
0.7453327798134752 0.3005055560213078 0.06738985994512041 N
0.43897232004415937 0.146713872998726 0.2208401959723696 N
0.43897220306482493 0.6467133007692717 0.7208402832015566 N
