System
1.0
5.417557768289014 0.0009619906967973 0.0
-2.7079466249559507 4.692222619738652 0.0
0.0 0.0 2.8145367561752734
Ta C N 
2 1 3 
direct
0.3333058728297686 0.6666931271702337 0.5 Ta
0.6666941271702314 0.33330687282976623 0.5 Ta
0.0 0.0 0.0 C
0.49999999999999994 7.214384611888621e-21 0.0 N
1.9577977246322784e-17 0.5 0.0 N
0.5 0.5 0.0 N
