System
1.0
4.793635264982799 -0.0187559464272808 1.4291542701549524
-2.6991240394598006 4.696472924530659 0.3578181839145522
0.0208389420736717 0.0293251572762382 8.685617498840859
Li Mn O F 
6 2 1 11 
direct
0.14489033884179123 0.3419606876005146 0.06005000172086791 Li
0.36301470777931866 0.4074508747546713 0.6890859988771298 Li
0.6331100126585252 0.6042856115400405 0.3369711416972621 Li
0.8660191676013993 0.14517334036791446 0.41207858289525995 Li
0.824562392238146 0.6172251966402921 0.9302498070386187 Li
0.6376890752770964 0.13225084907331594 0.8188125356126243 Li
0.16423037423954365 0.8975610634875806 0.5686072281146541 Mn
0.3355122579659667 0.8518878983193661 0.18045417701750613 Mn
0.41058571163999097 0.8747211414676557 0.37453484927258923 O
0.5533044480109064 0.11342123468646752 0.6140098662945915 F
0.4536013491521464 0.3746897378026585 0.8745478516158243 F
0.7279975575901139 0.1952418553675907 0.043501811989799785 F
0.7675737053621595 0.7244122448988921 0.5303832013984929 F
0.07373358542614888 0.0249612374094621 0.21871009744486286 F
0.24353256150265518 0.2686845357867619 0.4702714971346963 F
0.554113302286554 0.6360581655771923 0.13503468349814957 F
0.07638471988956122 0.5542352168031213 0.7055791023354143 F
0.9452723821125878 0.48074882526933654 0.27880254243143165 F
0.25453952330189783 0.7827554823780785 0.9807197407636987 F
0.9526608271234867 0.9667008007690768 0.7683362828465413 F
