System
1.0
3.379510913239245 -0.2601561223568019 0.6684615435605612
-0.2955832625054206 4.470626072011977 0.6440397172338106
0.9745566245254229 0.4832105540221345 8.154408647875142
Zn H C O 
1 4 4 4 
direct
0.2652115396578961 0.017297932964518505 0.2483963933377407 Zn
0.8239348630452368 -0.0380854822947482 0.6542348392500195 H
0.3046728135592926 0.9722773734711684 0.7233589642099698 H
0.6804472491201508 0.40781142499792494 0.8235316268324032 H
0.15758089532999048 0.38845823358994064 0.8674720137851479 H
0.4633291485615295 0.7198462969103713 0.5333949730281462 C
0.5226133153797914 0.8151682019951735 0.6911745094109875 C
0.4405356016196569 0.5474114841684307 0.8478062296632717 C
0.3866583539537857 0.640123963291387 0.018573556185919802 C
0.6505970156219651 0.9326784880157281 0.37991063058428737 O
0.22837331577162642 0.48815281706115043 0.5429433483607191 O
0.4202720734496403 0.464461243068391 0.1524954046631991 O
0.3062498149294267 0.9075110227605677 0.02459851068818921 O
