System
1.0
3.9606639326108795 -0.0 2e-16
6e-16 3.9606639326108795 2e-16
-0.0 -0.0 8.728402631819295
Nd Mn As O 
2 2 2 2 
direct
0.7500011200000003 0.7500011200000003 0.8597847418583064 Nd
0.2499995299999966 0.2499995299999966 0.1402151981416883 Nd
0.2499995299999966 0.7500011200000003 0.500000540000002 Mn
0.7500011200000003 0.2499995299999966 0.500000540000002 Mn
0.7500011200000003 0.7500011200000003 0.3417931882884124 As
0.2499995299999966 0.2499995299999966 0.6582067517115894 As
0.2499995299999966 0.7500011200000003 0.0 O
0.7500011200000003 0.2499995299999966 0.0 O
