System
1.0
2.9482474204231965 0.0 0.0
0.0 4.265371637597266 0.2006215329301724
0.0 0.0140428069479864 4.749988127836925
Cr H O 
2 1 4 
direct
0.0 0.0 0.0 Cr
0.5 0.5 0.5 Cr
0.5 0.5 7.810660846915503e-19 H
0.0 0.2648128919823717 0.6670616746788322 O
0.5 0.2583477338957613 0.14662318261347002 O
0.5 0.741652266104239 0.8533768173865299 O
0.0 0.7351871080176281 0.33293832532116785 O
