System
1.0
0.0 4.656739893105446 -0.0401128282304041
2.995348286554851 0.0 0.0
0.0 -0.1421519911305085 -9.3187617302501
Fe O F 
4 4 4 
direct
0.0 0.0 0.0 Fe
-3.928642890232655e-19 0.0 0.5 Fe
0.4242416891055713 0.5 0.7480954931780662 Fe
0.5757583108944289 0.5 0.2519045068219338 Fe
0.808269093033107 0.5 0.0951243600422085 O
0.7250418295297585 0.0 0.3546707703030396 O
0.27495817047024174 0.0 0.6453292296969606 O
0.19173090696689302 0.5 0.9048756399577914 O
0.7812393150752835 0.5 0.6036292711964346 F
0.6848525419685937 0.0 0.8420329242216908 F
0.315147458031407 0.0 0.1579670757783099 F
0.21876068492471662 0.5 0.3963707288035655 F
