System
1.0
5.9534348794606675 -0.000431095881601 0.0001209638556013
-2.9762043182529765 5.158609590852644 0.0176879685990221
-0.0002835669487162 -0.2650220851905747 10.098421630592101
Li Ti Cu Te O 
4 3 3 2 16 
direct
0.3438232960559208 0.687683508990872 0.08749624771277918 Li
0.008016976991795 0.0160782240822095 0.019665616551174096 Li
0.9871562534234014 0.974321904447614 0.5118008837576856 Li
0.6642275435022398 0.3284553262750051 0.5984867116460431 Li
0.16722005276441598 0.8180708232579242 0.7822701820681199 Ti
0.6508416769456746 0.8180906870334818 0.7822648744632275 Ti
0.8261456833767911 0.6523025079200894 0.27603575559735644 Ti
0.33777839574047824 0.16846754642183198 0.284402312515069 Cu
0.8306613229219572 0.1684654010768877 0.2844039236610145 Cu
0.17085522474938808 0.3417096445049465 0.7978167346626958 Cu
0.3211039123949726 0.6422079277841636 0.49559262699989437 Te
0.6683529723475558 0.336747910083192 0.014004139978385096 Te
0.8345068716306926 0.6690292642223528 0.905752381421942 O
0.3381314288020186 0.16655668507628738 0.9177547037936782 O
0.6675744022351733 0.3351710142603597 0.38077145120298733 O
0.9736172687394437 0.5190140170147213 0.1351949601858446 O
0.5453815354131631 0.5190379395509583 0.13518784663972666 O
0.1485963603533894 0.2971795363872569 0.4140467865366255 O
0.5230331279152971 0.5384529839028673 0.6693044195494985 O
0.49084942586985675 0.9817461080897103 0.6866843503314727 O
0.6492541020763709 0.7865042122137188 0.39049101952504417 O
-8.199358957640114e-05 -0.00013256488310570076 0.20104194842658477 O
0.0018281654173287947 0.0036718848900805876 0.7055092414862747 O
0.34164003628178863 0.6832891918048268 0.8931880370201862 O
0.5281917665712523 0.0564484089508305 0.14541046691018186 O
0.13721969264368467 0.7864918276771117 0.39049348861069283 O
0.015418123917523079 0.5383947825804074 0.6693281404346808 O
0.8283583745079948 0.1665402963833957 0.9177617483111132 O
