System
1.0
6.187160811287248 -0.0168888992114004 0.1932616038677107
-0.0152901617558706 6.194081856500455 0.1671579927270207
0.3376172928687599 0.2969765828248117 11.087046710717374
Sr H O 
2 32 20 
direct
-0.0175229849477077 -0.0235928681067377 0.49676843077000743 Sr
0.03968412924136219 0.025511535530902404 0.0118668959458896 Sr
-0.0108595752408295 0.41396751782592417 0.6238391362102141 H
0.22895223902023104 0.3330062189162237 0.6324934942931953 H
0.3456074271780893 0.6826333673177826 0.6191710837920951 H
0.23490182001292065 0.811510406012404 0.7253824075858142 H
0.5097080211795262 -0.0191589007726649 0.6339407607996347 H
0.5846001190559527 0.22413151359169084 0.6281278630089053 H
0.3047386105372929 0.62638270036251 0.10419639026590519 H
0.7471373287787467 0.40348733111763957 0.10453853075754048 H
0.8052718770108799 0.26725010614114136 0.2238059770586153 H
0.5810235027088914 0.9656458651573244 0.1535248691547846 H
0.6365238733519876 0.7340886497680307 0.102124632956075 H
0.2772534404521774 0.21280405469872193 0.2275353394751762 H
0.4122459747417317 0.2916237168165655 0.10634332682440718 H
0.6755905177521483 0.5687469667278947 0.6194738098815662 H
0.8311302183503466 0.6763895072940874 0.7134504886384637 H
0.06589635907417779 0.5644791888519779 0.1557004463853233 H
0.7199104408578837 0.9769973004080454 0.7777000078889335 H
0.6701262103047537 0.773638062294139 0.8788689380297874 H
0.041357766272967 0.43593723216146735 0.35469873639857125 H
0.2694133618644766 0.37663028769701057 0.4073237697477244 H
0.7972295337412517 0.7353280416095869 0.283177089270868 H
0.6042167279749774 0.26546226966293973 0.4050060103906678 H
0.5597194463873627 0.0358633654671886 0.3536163021656039 H
0.27018152210575713 0.7918017443293001 0.2864190149050747 H
0.7098179092589556 0.5999128917205306 0.4025370934406178 H
0.3804664653137577 0.7060284468442143 0.4050229922461591 H
0.9776101062334104 0.3177418287993226 0.7951034599711404 H
0.7855485977572143 0.4207999082523152 0.8846328154332825 H
0.09101798368429001 0.594676523706175 0.8779147689631451 H
0.3368550848318547 0.6576421416136324 0.8887389198506244 H
0.49608931767163406 0.0739825480393385 0.8850925942599653 H
0.4321114623603606 0.3169213155091834 0.8892868019357345 H
0.36843736508295866 0.16845387411930604 0.883505853521338 O
0.1708395185634617 0.68695365582259 0.1470092886048711 O
0.6431939654851735 0.07242344342821211 0.6371788526098979 O
0.27964016863785374 0.8288170152830618 0.6367852891045812 O
0.0741701648940604 0.280908559407643 0.6427675322411687 O
0.8282350056870905 0.6379205383533115 0.6292453299418261 O
0.7486238022782181 0.9181790694130393 0.860857707546004 O
0.8717350919322425 0.3316792307859305 0.146125689066435 O
0.18964118975607647 0.72374291836521 0.8732483264194684 O
0.5586975025337794 0.5441233619974818 0.9142898245821459 O
0.3190146372294018 0.8403376828072159 0.3644496982363088 O
0.6780000514061508 0.14092442602281294 0.363054052420714 O
0.8440062345179128 0.6722138134160162 0.36166347274188526 O
0.14190673876022458 0.3135947071934537 0.3667947056876534 O
0.5375241527068472 0.5256119645234781 0.05038469125874629 O
0.46970831919332423 0.45942695749059215 0.594099896675117 O
0.4858037972474546 0.4757332180742563 0.4580219484749378 O
0.7015656019769893 0.8623447855999408 0.1423574210477201 O
0.9394682492036239 0.36376451943712973 0.8784139626399735 O
0.3427905880283575 0.160419473093522 0.1505772384776921 O
