System
1.0
4.070850730331732 -7.050920619495629 0.0
4.070851168745717 7.050920366377187 0.0
0.0 0.0 5.553330836548063
Ba Mn N 
6 2 6 
direct
0.9116303592935268 0.6379165074901921 0.75 Ba
0.2737138518046463 0.9116303592944949 0.25 Ba
0.6379165074888805 0.7262861481956974 0.25 Ba
0.3620834925111197 0.2737138518043025 0.75 Ba
0.7262861481953539 0.0883696407055052 0.75 Ba
0.0883696407064734 0.3620834925098076 0.25 Ba
0.6666669999999968 0.3333330000000032 0.25 Mn
0.3333330000000032 0.6666669999999968 0.75 Mn
0.31715127085902345 0.8697846427115651 0.75 N
0.44736662814734435 0.31715127085925904 0.25 N
0.8697846427116791 0.552633371852306 0.25 N
0.1302153572883208 0.4473666281476941 0.75 N
0.5526333718526558 0.6828487291407407 0.75 N
0.6828487291409765 0.1302153572884351 0.25 N
