System
1.0
6.339860191663418 -0.0648944234455147 4e-16
-3.1168104707286384 5.523569692349023 4e-16
-0.0 -0.0 3.8852384777526
Cr Co N 
2 6 6 
direct
0.6666822549182325 0.33333897224764963 0.7500000000000001 Cr
0.33331774508176726 0.66666102775235 0.25 Cr
0.8192254766677395 0.638471744512894 0.25 Co
0.8191705026391668 0.18074344283042718 0.25 Co
0.36147117483066343 0.18076565952838708 0.25 Co
0.18077452333226027 0.3615282554871057 0.7500000000000001 Co
0.18082949736083295 0.8192565571695726 0.7500000000000001 Co
0.6385288251693364 0.8192343404716128 0.7500000000000001 Co
0.8306423349242762 0.6612875792252445 0.7500000000000001 N
0.8305762091524861 0.16932881118861307 0.7500000000000001 N
0.33865169178824656 0.1693630660393882 0.7500000000000001 N
0.16935766507572358 0.3387124207747554 0.25 N
0.16942379084751366 0.8306711888113872 0.25 N
0.6613483082117532 0.8306369339606117 0.25 N
