System
1.0
0.0 5.402189366654859 0.0723168868061894
8.62024014086583 0.0 0.0
0.0 -3.1532331062840564 -11.570668766376807
C S N 
4 12 16 
direct
0.38979872945558136 0.1592917614544324 0.7151663734206973 C
0.6102012705444192 0.6592917614544328 0.7848336265793027 C
0.6102012705444192 0.8407082385455672 0.2848336265793028 C
0.3897987294555813 0.3407082385455674 0.2151663734206971 C
0.16560928478010511 0.9242071141846427 0.1656624665574896 S
0.1656092847801051 0.5757928858153574 0.6656624665574894 S
0.834390715219903 0.0757928858153576 0.8343375334425106 S
0.9591152106480262 0.1687337616385065 0.37912501908757124 S
0.04088478935197371 0.6687337616385067 0.1208749809124285 S
0.8343907152199029 0.42420711418464246 0.3343375334425103 S
0.9591152106480263 0.3312662383614934 0.8791250190875711 S
0.642373179452446 0.28417950758555394 0.5052336712295387 S
0.3576268205475538 0.7841795075855533 0.9947663287704613 S
0.3576268205475537 0.7158204924144467 0.4947663287704616 S
0.6423731794524459 0.21582049241444604 0.0052336712295385 S
0.040884789351973816 0.8312662383614933 0.6208749809124289 S
0.28308187898912485 0.9374702928288455 0.05445110993140961 N
0.7169181210108743 0.4374702928288456 0.4455488900685905 N
0.780619919628365 0.3559410089081984 0.9651775741449612 N
0.21938008037163598 0.8559410089082002 0.5348224258550388 N
0.2193800803716359 0.6440589910917998 0.0348224258550394 N
0.7806199196283647 0.1440589910918011 0.4651775741449607 N
0.602199692769474 0.4143455374720958 0.2178882443935722 N
0.6021996927694742 0.0856544625279042 0.7178882443935725 N
0.3978003072305262 0.585654462527905 0.7821117556064275 N
0.19199912138483566 0.2773767099394144 0.2069713614901762 N
0.8080008786151647 0.7773767099394139 0.2930286385098241 N
0.8080008786151649 0.7226232900605862 0.7930286385098227 N
0.19199912138483577 0.2226232900605857 0.7069713614901773 N
0.28308187898912485 0.5625297071711546 0.5544511099314101 N
0.3978003072305261 0.914345537472095 0.2821117556064276 N
0.7169181210108744 0.06252970717115461 0.94554889006859 N
