System
1.0
-1.215426596627283 -2.1052506420853816 0.0
-1.215426596627283 2.1052506420853816 -0.0
0.0 -0.0 -12.834040527963758
C N 
6 2 
direct
0.006202325992635305 0.9937976740073646 0.75 C
0.9937976740073646 0.006202325992635305 0.25 C
0.666661692718661 0.33333830728133884 0.0001372493412009 C
0.33333830728133884 0.666661692718661 0.9998627506587993 C
0.3333383072813388 0.666661692718661 0.5001372493412007 C
0.666661692718661 0.33333830728133884 0.4998627506587988 C
0.6728603771734846 0.3271396228265149 0.75 N
0.3271396228265149 0.6728603771734846 0.25 N
