System
1.0
6.2510985972051305 -0.0 0.0
0.0 6.854459099285838 0.0
0.0 0.0 13.463579142960244
Nd N Cl 
8 4 12 
direct
0.006021583921437401 0.8231492167194625 0.9075447819772899 Nd
0.4939784160785631 0.8231492167194625 0.09245521802271049 Nd
0.9939784160785627 0.6768507832805374 0.40754478197728944 Nd
0.9939784160785627 0.1768507832805371 0.09245521802271049 Nd
0.4939784160785631 0.3231492167194626 0.40754478197728944 Nd
0.5060215839214374 0.1768507832805371 0.9075447819772899 Nd
0.006021583921437401 0.3231492167194626 0.5924552180227101 Nd
0.5060215839214374 0.6768507832805374 0.5924552180227101 Nd
0.75 0.49251612185044397 0.49999999999999994 N
0.75 0.9925161218504439 0.0 N
0.25 0.5074838781495561 0.49999999999999994 N
0.25 0.0074838781495563 0.0 N
0.25 0.9975745879059882 0.49999999999999994 Cl
0.25 0.49757458790598846 0.0 Cl
0.9113019402387376 0.1512372392341056 0.7863492007477926 Cl
0.0886980597612623 0.8487627607658941 0.21365079925220756 Cl
0.5886980597612627 0.6512372392341059 0.28634920074779247 Cl
0.4113019402387378 0.8487627607658941 0.7863492007477926 Cl
0.9113019402387376 0.6512372392341059 0.7136507992522073 Cl
0.4113019402387378 0.3487627607658943 0.7136507992522073 Cl
0.5886980597612627 0.1512372392341056 0.21365079925220756 Cl
0.0886980597612623 0.3487627607658943 0.28634920074779247 Cl
0.75 0.5024254120940118 0.0 Cl
0.75 0.0024254120940116 0.49999999999999994 Cl
