System
1.0
-1.8084459e-08 5.9090712812667965 8.0139966e-09
-5.422027004459981 2.9545351534930653 -0.1651964524022089
0.140043109387895 6.5199048e-09 4.962544086525034
Ga H N F 
2 10 4 4 
direct
0.5 1.7306114665718747e-18 0.5 Ga
0.0 0.0 0.0 Ga
0.8886560672947859 0.22268686540265134 0.5700303264982884 H
0.9520367235067173 0.3900130221466552 0.7950435418422052 H
0.36532509189829077 0.26934881618133893 0.9232330430062927 H
0.27088287214762713 0.4582342557101092 0.6561644739671171 H
0.6579502543477137 0.39001302213875844 0.7950435418403653 H
0.6346749081017089 0.7306511838186612 0.0767669569937073 H
0.34204974565228646 0.609986977861242 0.20495645815963462 H
0.04796327649328239 0.6099869778533443 0.20495645815779512 H
0.1113439327052136 0.7773131345973496 0.4299696735017117 H
0.729117127852373 0.541765744289891 0.34383552603288264 H
0.6420248183064563 0.7159513633915038 0.28006685894601957 N
0.1445595907956984 0.7108798184158813 0.2313609544961572 N
0.8554404092043011 0.28912018158411956 0.7686390455038427 N
0.35797518169354353 0.2840486366084961 0.7199331410539801 N
0.1579056740038653 0.15744194090822222 0.2414536254517415 F
0.3153476148828304 0.8425580590995505 0.7585463745512665 F
0.8420943259961345 0.8425580590917776 0.7585463745482586 F
0.6846523851171696 0.15744194090045002 0.24145362544873372 F
