System
1.0
5.916454045371107 0.2837670094236813 -0.7631817038320979
-0.8542056185894475 -7.629946000128962 -0.1561552817504928
-1.782966459285926 1.2423940975956556 -2.08774561670312
I N 
2 2 
direct
0.03136221213413671 0.020769069653025697 -0.10770497704815428 I
0.3346372260113233 0.6240412645183798 0.7244876842799268 I
0.7236334357889712 0.4054843757949495 0.42353756301896855 N
0.6425291675574506 0.2394120209775982 0.19357709978891416 N
