System
1.0
5.984040058543648 0.0327467109132094 8.656537291397798
2.7248081067257544 5.327778896494995 8.656537290750325
0.0532009448641736 0.0327467044150914 10.52338004688915
Lu C N 
4 6 12 
direct
0.6645305850966643 0.6645305850966643 0.6645305850959677 Lu
0.8354694149033359 0.8354694149033361 0.8354694149040324 Lu
0.3354694149033364 0.33546941490333637 0.3354694149040325 Lu
0.16453058509666396 0.16453058509666393 0.16453058509596752 Lu
0.44994313351575116 0.05005686648419211 0.7500000000000567 C
0.5500568664842489 0.9499431335158082 0.24999999999994318 C
0.9499431335161989 0.25000000000050454 0.5500568664842559 C
0.24999999999955255 0.5500568664836876 0.9499431335157937 C
0.7500000000004479 0.4499431335163125 0.05005686648420621 C
0.050056866483801456 0.7499999999994956 0.449943133515744 C
0.3580372562903218 0.5513196049854394 0.9590162728388553 N
0.948680395014227 0.14196274370992693 0.540983727161237 N
0.5513196049860007 0.9590162728396089 0.3580372562879698 N
0.040983727160135625 0.6419627437088542 0.448680395016565 N
0.6419627437096784 0.44868039501456114 0.04098372716114439 N
0.05131960498577298 0.858037256290073 0.4590162728387633 N
0.5409837271606401 0.9486803950140847 0.14196274371169632 N
0.45901627283936003 0.05131960498591501 0.8580372562883037 N
0.9590162728398643 0.3580372562911461 0.5513196049834358 N
0.8580372562910538 0.45901627284020563 0.05131960498318665 N
0.4486803950139999 0.04098372716039141 0.6419627437120374 N
0.14196274370894632 0.5409837271597947 0.9486803950168131 N
