System
1.0
3.5008380102849177 -0.0 -0.0
-0.0 3.5008380102849177 -0.0
0.0 0.0 4.296122590846332
Ca N O 
1 1 2 
direct
0.5000006434232418 0.5000006434232418 0.49584017914379175 Ca
0.0 0.0 0.9101858671902866 N
0.0 0.0 0.6082574757805771 O
0.5000006434232418 0.5000006434232418 0.9957163476970737 O
