System
1.0
0.0 4.1844907882277225 4.1844907882277225
4.322236758181437 -0.1377459699537167 4.322236758181437
4.1844907882277225 4.1844907882277225 0.0
Li Co O F 
2 4 2 6 
direct
0.9798934035694224 0.06032178929173471 0.9798934035694223 Li
0.2701065964305777 0.1896782107082652 0.2701065964305777 Li
0.625 0.6249999999999999 0.12500000000000006 Co
0.6249999999999999 0.12500000000000006 0.625 Co
0.12500000000000008 0.6249999999999999 0.625 Co
0.625 0.6249999999999999 0.6250000000000001 Co
0.8515651348022076 0.4453065955933863 0.8515651348022076 O
0.39843486519779264 0.8046934044066135 0.3984348651977926 O
0.3819035962771921 0.3543576959196237 0.38190359627719217 F
0.8818361115259891 0.3543576959196237 0.38190359627719217 F
0.868096403722808 0.8956423040803759 0.36816388847401044 F
0.38190359627719206 0.35435769591962374 0.8818361115259891 F
0.3681638884740105 0.8956423040803759 0.8680964037228082 F
0.8680964037228079 0.895642304080376 0.8680964037228082 F
