System
1.0
6.193584507220599 0.0 -2.2955824383787626
0.0 5.037858326563578 0.0
0.2473482800444371 0.0 9.02757653914404
Zn H C N O 
2 12 4 8 8 
direct
0.012889473414555102 0.7793978454732796 0.7462364395449447 Zn
0.0128894734145551 0.22060215452672 0.2462364395449451 Zn
0.5115095237028001 0.9375298683308925 0.0896324404997279 H
0.5115095237028001 0.06247013166910741 0.5896324404997275 H
0.3860117841559546 0.0047130535800696 0.7943464206775174 H
0.38601178415595455 0.99528694641993 0.29434642067751654 H
0.2491221974769866 0.1744812620076891 0.892609733154513 H
0.24912219747698658 0.8255187379923109 0.3926097331545133 H
0.6175341251770482 0.5798302000806282 0.34824066811165155 H
0.6175341251770481 0.4201697999193716 0.8482406681116507 H
0.8800656492217119 0.3530353398875072 0.5650436114630296 H
0.8800656492217119 0.6469646601124929 0.0650436114630295 H
0.6854603961993774 0.4822503528666858 0.6277170891218913 H
0.6854603961993773 0.5177496471333146 0.1277170891218911 H
0.8260756139307891 0.1031188780884276 0.9248528410348438 C
0.8260756139307892 0.8968811219115723 0.42485284103484405 C
0.3133508351084985 0.6064324583657362 0.02951331402970469 C
0.3133508351084985 0.3935675416342644 0.5295133140297049 C
0.8093103427912361 0.5260573007636563 0.5856470703383263 N
0.3998462394797133 0.8419595310803514 -0.00035572536280832753 N
0.3998462394797134 0.1580404689196482 0.49964427463719185 N
0.29021522470443234 -0.0122234533670447 0.8634291719447044 N
0.29021522470443234 0.0122234533670449 0.36342917194470403 N
0.7233152709533441 0.6708926677006153 0.4444503794456825 N
0.7233152709533442 0.3291073322993842 0.9444503794456823 N
0.8093103427912361 0.4739426992363441 0.08564707033832589 N
0.9727256050071285 0.0037750536904197 0.04100977102013011 O
0.9727256050071283 0.9962249463095799 0.541009771020129 O
0.4073430488877903 0.5111642723488755 0.6577352468477097 O
0.7647187483781371 0.0048059800898585 0.2879738661418735 O
0.1491059214104928 0.488329129200872 0.42191767198655117 O
0.1491059214104928 0.5116708707991281 0.9219176719865508 O
0.4073430488877903 0.4888357276511251 0.1577352468477107 O
0.7647187483781371 -0.0048059800898584 0.787973866141874 O
