System
1.0
5.328605512745918 -0.026100957204309 1.2428889910733105
-1.8833182339477572 4.984759813683413 1.2428889910733105
0.0114720191620679 0.016511200610107 6.929326228037643
Ca Mg P O F 
2 2 2 8 2 
direct
0.6624675728668392 0.3375324271331606 0.75 Ca
0.3375324271331606 0.6624675728668394 0.25 Ca
-1.0187446859202551e-19 1.1369404539429635e-19 0.5 Mg
0.0 0.0 0.0 Mg
0.3207394430144632 0.6792605569855374 0.75 P
0.6792605569855372 0.3207394430144633 0.25 P
0.5984420686335395 0.7426827708676824 0.5882322534747075 O
0.40155793136646023 0.2573172291323175 0.41176774652529247 O
0.2573172291323175 0.40155793136646034 0.9117677465252922 O
0.7426827708676823 0.5984420686335397 0.08823225347470759 O
0.32882706156394026 0.8901635303105199 0.8688270120972821 O
0.6711729384360592 0.1098364696894803 0.13117298790271836 O
0.1098364696894803 0.6711729384360593 0.6311729879027179 O
0.8901635303105199 0.32882706156394037 0.3688270120972816 O
0.915551414937784 0.08444858506221571 0.75 F
0.08444858506221567 0.915551414937784 0.25000000000000006 F
