System
1.0
4.430990683052885 -0.0030143106764951 3.833205748786403
1.1593549011339221 2.985310006243496 4.974547364e-07
-0.0008417933915521 0.0003268874311739 9.02585839178721
Mn S N 
4 3 2 
direct
0.30756742824676797 0.8462157808752042 0.6390082397943149 Mn
0.6924325717532321 0.1537842191247959 0.3609917602056854 Mn
0.5671283871265242 0.716435806436824 0.13787459330505017 Mn
0.4328716128734754 0.2835641935631756 0.8621254066949501 Mn
0.0 0.0 0.0 S
0.8125548627012117 0.5937225686507552 0.7841161100338214 S
0.18744513729878873 0.4062774313492447 0.21588388996617872 S
0.4870147901527833 0.7564926049180213 0.37679803669193124 N
0.5129852098472168 0.2435073950819792 0.6232019633080687 N
