System
1.0
5.414496371766473 0.0 0.0
-0.0 5.414496371766473 0.0
-0.0 -0.0 5.414496371766473
Ba P N 
3 1 1 
direct
0.0 0.5 0.5 Ba
0.5 0.0 0.5 Ba
0.5 0.5 0.0 Ba
0.0 0.0 0.0 P
0.5 0.5 0.5 N
