System
1.0
3.5342329644237442 -3.6421422292e-06 -0.0002797954187494
-1.7673462674249478 3.060773042185349 4.29397370998e-05
-5.925069164e-07 8.33174433522e-05 5.94353790376969
Mg Cd N 
2 1 2 
direct
0.6666823431534906 0.3333369243625477 0.15358678639866108 Mg
0.3333379436959374 0.6666630759342249 0.8464132141472813 Mg
1.8958952792000002e-06 1.3494654199999605e-08 0.5000000115935969 Cd
0.666640443751421 0.3333245645931806 0.7730357707244774 N
0.33338052017053393 0.6666754216153928 0.22696421713598328 N
