System
1.0
6.097328478742431 0.0026649867062571 -0.0311602079760591
-4.675092735631172 5.926472838494556 -5.089069027e-07
0.0043902771171592 0.003463269016361 5.09056811305412
Mg Fe N 
6 4 8 
direct
0.22992723673026771 0.9858782905485006 0.048502926250122 Mg
0.7700727632697825 0.7559510538182755 0.4514970737498245 Mg
0.7700727632697325 0.0141217094514989 0.951497073749878 Mg
0.22992723673021753 0.24404894618172432 0.5485029262501756 Mg
-4.3169112280336663e-14 0.6049818274537604 0.7499999999999291 Mg
4.315104187794977e-14 0.3950181725462397 0.2500000000000707 Mg
0.5947900228957389 0.42355504924845744 0.1062034007504456 Fe
0.4052099771041795 0.8287650263525671 0.393796599249707 Fe
0.5947900228958211 0.1712349736474329 0.606203400750293 Fe
0.4052099771042615 0.5764449507515426 0.8937965992495542 Fe
0.3122671241715356 0.7407442880507951 0.0526315873829916 N
0.21237770749983786 0.9379829091916204 0.5167644879885556 N
0.7876222925000993 0.7256052016918197 0.983235512011246 N
0.7876222925001621 0.06201709080837931 0.4832355120114445 N
0.21237770749990081 0.2743947983081801 0.0167644879887541 N
0.6877328758284647 0.2592557119492053 0.9473684126170084 N
0.3122671241716179 0.5715228361208557 0.5526315873832248 N
0.6877328758283824 0.428477163879144 0.4473684126167752 N
