System
1.0
0.953119253504003 -0.2781970437503111 3.1918001604503363
3.170041604405292 0.7232607776614042 0.7726399763475007
-0.6072803034464631 9.005592636869158 -1.6460318131543046
Pd N Cl 
1 2 2 
direct
0.2199762551494208 0.0057125540837065 -0.001997025382660698 Pd
0.06809331275005838 0.6177005963620968 0.8589019739332715 N
0.8840347370505461 0.8815809568780238 0.13709504631922434 N
0.11231442127984506 0.7143459128410822 0.33419976617930375 Cl
-0.15741872622986708 -0.21834102016490378 0.661800238950862 Cl
