System
1.0
4.562525350735772 -1.09256027e-08 -1.8293987405205905
-0.5189308592847094 5.261720022501354 -1.2942166815236926
-0.0166922818335228 -0.0285490058497341 6.562544086929701
Sb O 
4 8 
direct
0.7191187023272914 0.25000000000264255 3.863317499638016e-12 Sb
0.2808812976727086 0.7499999999973574 -3.863279783002691e-12 Sb
0.5000000000000001 0.49999999999999994 0.5 Sb
-1.4757653425714464e-19 6.420463722672019e-20 0.5 Sb
0.49514210209886134 0.5330944044905181 0.8131524166957843 O
0.6819896853991615 0.9669055955088774 0.1868475833032167 O
0.5048578979011387 0.4669055955094816 0.186847583304216 O
0.3180103146008384 0.0330944044911225 0.8131524166967833 O
0.8681952710607682 0.33187979767149045 0.6224392464862191 O
0.24575602458513127 0.16812020234807148 0.3775607535276143 O
0.13180472893923184 0.6681202023285097 0.377560753513781 O
0.7542439754148688 0.8318797976519283 0.6224392464723858 O
