System
1.0
5.090876216836483 -3.814536e-10 -2.6796059855420853
-1.4104228353370203 4.891597406209024 -2.6796059876710405
0.0119405519186135 0.0158696867157837 6.198464391392389
Mn Zn O 
4 2 8 
direct
0.0 0.0 0.0 Mn
0.49999999999999994 -8.127148723026942e-21 0.5 Mn
-2.060952541822178e-19 -1.0750921995468342e-20 0.5 Mn
3.263474198794526e-18 0.5000000000000001 -9.537111564085228e-18 Mn
0.625 0.375 0.24999999999999994 Zn
0.37500000000000006 0.6250000000000001 0.75 Zn
0.7548485307739797 0.7793330006733511 0.5096980615482909 O
0.7696349391230501 0.2451514692265491 0.9903019384531018 O
0.2206669993301036 0.2451514692269694 0.990301938453255 O
0.24515146922602013 0.22066699932664902 0.4903019384517092 O
0.24515146922714554 0.769634939126858 0.49030193845464753 O
0.2303650608769497 0.7548485307734509 0.009698061546898087 O
0.7548485307728545 0.23036506087314226 0.5096980615453522 O
0.779333000669896 0.7548485307730305 0.009698061546744855 O
