System
1.0
4.837697735861882 0.0487111079384563 -0.0
0.0487111079384563 4.837697735861882 0.0
0.0 -0.0 9.876547411047987
Mn O F 
6 1 11 
direct
0.010248762313059299 0.9897512376869407 0.0114607157755202 Mn
0.010248762313059299 0.9897512376869407 0.3218722842244759 Mn
0.002253502959656702 0.9977464970403431 0.6666669999999968 Mn
0.5062932089954486 0.4937067910045516 0.8355196608084052 Mn
0.47287139367473063 0.5271286063252695 0.1666669999999968 Mn
0.5062932089954486 0.4937067910045516 0.497813339191598 Mn
0.1901417401941398 0.8098582598058601 0.1666669999999968 O
0.7789153345436536 0.2210846654563464 0.1666669999999968 F
0.7046839769608197 0.6854243962176982 0.6666669999999968 F
0.6912639092604267 0.7032010268397695 0.3323407318063599 F
0.6912639092604267 0.7032010268397695 0.0009932681936407 F
0.1994649369188588 0.8005350630811412 0.8339039611409867 F
0.2967989731602305 0.3087360907395733 0.3323407318063599 F
0.2967989731602305 0.3087360907395733 0.0009932681936407 F
0.8142089332943122 0.1857910667056877 0.4908241651731124 F
0.1994649369188588 0.8005350630811412 0.4994290388590164 F
0.3145756037823017 0.2953160230391804 0.6666669999999968 F
0.8142089332943122 0.1857910667056877 0.8425088348268908 F
