System
1.0
5.923928080253394 -1.89815e-11 -2.0944248578935754
-2.9619640391582034 5.130272208250581 -2.0944248578935754
-1.0959e-11 -1.89815e-11 6.283274575042634
Tb Mn Cu O 
1 4 3 12 
direct
0.0 0.0 0.0 Tb
0.5 0.5 0.5000000000000001 Mn
0.5 0.0 -1.2970249542046075e-17 Mn
-5.813628700099065e-18 0.5 1.4785326073582838e-17 Mn
0.0 0.0 0.5 Mn
0.5 0.5 2.9570652147165676e-17 Cu
0.5 0.0 0.5 Cu
-5.813628700099065e-18 0.5 0.5000000000000001 Cu
0.47547599263583706 0.1776308710453625 0.2978451215904739 O
0.5245240073641632 0.8223691289546379 0.7021548784095262 O
0.2978451215904903 0.1202142505451274 0.8223691289546533 O
0.7021548784095095 0.8797857494548726 0.17763087104534722 O
0.2978451215904739 0.475475992635837 0.1776308710453625 O
0.1776308710453625 0.2978451215904739 0.475475992635837 O
0.8223691289546534 0.2978451215904903 0.1202142505451274 O
0.17763087104534725 0.7021548784095095 0.8797857494548728 O
0.1202142505451274 0.8223691289546533 0.2978451215904904 O
0.8223691289546379 0.7021548784095262 0.5245240073641632 O
0.7021548784095262 0.5245240073641632 0.8223691289546379 O
0.8797857494548726 0.1776308710453472 0.7021548784095096 O
