System
1.0
5.280824900007719 0.0641147462768201 2.8495930759253345
2.1953481149668423 4.803297719207418 2.849593075925334
0.0276368319967946 0.0179931443932949 5.767848536785176
Li Mn Cr O 
4 3 1 8 
direct
0.5 0.5000000000000001 5.266682831499336e-17 Li
0.5000000000000001 4.356357444893995e-19 0.5000000000000001 Li
0.0 0.0 0.0 Li
-1.2717664436180835e-17 0.5000000000000001 0.5 Li
-1.028956586884932e-17 0.5000000000000001 -1.4221614581322347e-18 Mn
0.5 0.5000000000000001 0.5000000000000001 Mn
0.5 -5.769653110026981e-19 -1.4221614581322347e-18 Mn
-1.5127400511195468e-19 2.536595347522445e-19 0.5 Cr
0.7588656823583007 0.7588656823583008 0.21733684144802193 O
0.751088231287127 0.2633426692117809 0.7267872773408777 O
0.23095815042047835 0.23095815042047832 0.2520433208344395 O
0.2411343176416995 0.24113431764169954 0.7826631585519779 O
0.2633426692117807 0.751088231287127 0.7267872773408778 O
0.24891176871287274 0.736657330788219 0.27321272265912205 O
0.7690418495795219 0.7690418495795219 0.7479566791655607 O
0.736657330788219 0.24891176871287282 0.27321272265912205 O
