System
1.0
5.036269881016881 -3.5825146e-09 3e-16
-2.51813459496676 4.361537856773616 3e-16
-0.0 -0.0 12.486219757703887
Sr Li Si O 
3 6 3 12 
direct
0.416019230863384 -1e-15 0.8333330000000032 Sr
0.5839807691366171 0.5839807691366171 0.5 Sr
-1.0013019231773126e-15 0.416019230863384 0.16666699999999682 Sr
0.6634352713936545 0.5915056688561435 0.7458956652508286 Li
0.928070397462489 0.3365647286063234 0.4125616652508278 Li
0.4084943311438637 0.071929602537526 0.0792286652508246 Li
0.3365647286063234 0.9280703974624889 0.5874383347491723 Li
0.5915056688561436 0.6634352713936545 0.2541043347491715 Li
0.07192960253752602 0.4084943311438637 0.9207713347491755 Li
0.7215225758636241 0.7215225758636241 0.0 Si
3.0097154487630446e-13 0.2784774241360751 0.6666666666666644 Si
0.27847742413607507 3.01e-13 0.33333333333333576 Si
0.7610548291562395 0.0688679562416788 0.0034181220794130005 O
0.5479263082824085 0.5122654003192004 0.10681250527657231 O
0.9643400920366308 0.4520736917178014 0.7734795052765694 O
0.4877345996809582 0.035659907963001 0.4401455052765685 O
0.4520736917178014 0.964340092036631 0.22652049472343092 O
0.5122654003192005 0.5479263082824086 0.8931874947234275 O
0.03565990796300103 0.4877345996809583 0.5598544947234313 O
0.06886795624167866 0.7610548291562395 0.9965818779205868 O
0.6921868729147032 0.9311320437583941 0.6632478779205861 O
0.23894517084361847 0.3078131270853668 0.3299148779205903 O
0.931132043758394 0.6921868729147032 0.3367521220794136 O
0.3078131270853668 0.23894517084361852 0.6700851220794101 O
