System
1.0
0.0 7.627640288645187 -0.1105617575317979
5.779234568135915 0.0 0.0
0.0 -6.76146755573697 -7.606364657299678
Ba W N 
4 4 12 
direct
0.2910817322877221 0.736649590250145 0.6325260209322183 Ba
0.7089182677122776 0.2633504097498549 0.36747397906778223 Ba
0.7089182677122776 0.23664959025014506 0.8674739790677819 Ba
0.29108173228772205 0.763350409749855 0.132526020932218 Ba
0.8413957573146694 0.7615406453789847 0.6387974884030431 W
0.8413957573146695 0.7384593546210152 0.138797488403043 W
0.1586042426853309 0.2615406453789854 0.861202511596957 W
0.15860424268533072 0.23845935462101467 0.36120251159695693 W
0.5799771172141222 0.934541300316417 0.5705512070041011 N
0.7953209424866273 0.7484227379159386 0.44199079611336417 N
0.2046790575133726 0.2484227379159388 0.05800920388663581 N
0.5799771172141222 0.565458699683583 0.07055120700410081 N
0.7953209424866274 0.7515772620840614 0.941990796113364 N
0.8728978232283937 0.4359695712875871 0.7039352983015514 N
0.42002288278587874 0.4345413003164172 0.9294487929958991 N
0.4200228827858787 0.065458699683583 0.42944879299589916 N
0.20467905751337268 0.2515772620840611 0.5580092038866362 N
0.12710217677160632 0.5640304287124128 0.2960647016984486 N
0.8728978232283936 0.0640304287124125 0.20393529830155172 N
0.12710217677160632 0.9359695712875872 0.7960647016984488 N
