System
1.0
1.4316280757591384 -2.4796523880177777 0.0
1.4316280757591384 2.4796523880177777 0.0
-0.0 0.0 12.633735444666788
Fe Ag O 
2 2 4 
direct
0.0 0.0 0.5 Fe
0.0 0.0 0.0 Fe
0.6666669999999968 0.33333300000000315 0.7499999999999999 Ag
0.33333300000000315 0.6666669999999968 0.25 Ag
0.33333300000000315 0.6666669999999968 0.4211270130045073 O
0.6666669999999968 0.33333300000000315 0.9211270130045073 O
0.6666669999999968 0.33333300000000315 0.5788729869954927 O
0.33333300000000315 0.6666669999999968 0.0788729869954927 O
