System
1.0
3.8368834356831196 0.008946489232887 -6.38296188835061
-0.2876596132596621 3.826095462163534 -6.382961888350608
-0.0082797249966711 -0.0089464892317154 7.447402796500625
Sb Pb I O 
1 1 1 2 
direct
0.32308119587713524 0.32308119587713535 6.655779825517343e-17 Sb
0.6480865622987715 0.6480865622987715 5.0512627937279825e-17 Pb
0.9938418775297261 0.9938418775297262 1.4931991294378814e-17 I
0.7538956821471818 0.2538956821471818 0.4999999999999998 O
0.2538956821471818 0.7538956821471818 0.4999999999999999 O
