System
1.0
3.8785854074439086 0.0 0.0
0.0 3.8785854074439086 0.0
0.0 0.0 3.8785854074439086
In Ni N 
1 3 1 
direct
0.0 0.0 0.0 In
0.5 0.5 0.0 Ni
0.5 0.0 0.5 Ni
0.0 0.5 0.5 Ni
0.5 0.5 0.5 N
