System
1.0
1.511244985208538 -2.6175527513058774 0.0
1.511244985208538 2.6175527513058774 0.0
0.0 0.0 5.122942969021837
Ni N 
2 2 
direct
0.33333300000000315 0.6666669999999968 0.3716264446493722 Ni
0.6666669999999968 0.33333300000000315 0.8716264446493722 Ni
0.33333300000000315 0.6666669999999968 0.0033755553506299 N
0.6666669999999968 0.33333300000000315 0.5033755553506298 N
