System
1.0
3.1837956683084023 0.0 -0.0
0.0 3.1837956683084023 0.0
-0.0 0.0 7.310834360805615
Hf N Cl 
1 1 2 
direct
0.4999998007049697 0.4999998007049697 0.7461876749533308 Hf
0.0 0.0 0.7631803005146123 N
0.0 0.0 0.4379753958689343 Cl
0.4999998007049697 0.4999998007049697 0.06265676983785091 Cl
