System
1.0
4.015267109756476 0.0 -0.0
-0.0 4.015267109756476 0.0
0.0 0.0 4.015267109756476
Tl W O 
1 1 3 
direct
0.0 0.0 0.0 Tl
0.5 0.5 0.5 W
0.5 0.5 0.0 O
0.5 0.0 0.5 O
0.0 0.5 0.5 O
