System
1.0
2.4969273367888336 4.245656882022569 -0.9779121587271604
-2.4969273367888336 4.245656882022569 0.9779121587271604
0.021408770725521 0.0 9.470469890905234
Al Ge H O 
4 2 4 12 
direct
0.4697921228109744 0.2979091371704589 0.9142266430279833 Al
0.297909137170459 0.46979212281097427 0.5857733569720166 Al
0.5302078771890257 0.7020908628295408 0.0857733569720166 Al
0.7020908628295408 0.5302078771890258 0.4142266430279832 Al
0.027446648813431403 0.0274466488134314 0.7499999999999999 Ge
0.9725533511865687 0.9725533511865687 0.25 Ge
0.9203273783976604 0.3872659662674017 0.9477031339855783 H
0.3872659662674016 0.9203273783976605 0.5522968660144217 H
0.0796726216023391 0.6127340337325992 0.05229686601442171 H
0.612734033732599 0.07967262160233908 0.4477031339855784 H
0.4846595849997665 0.7130778033993227 0.5410975501212115 O
0.7130778033993227 0.4846595849997665 0.9589024498787885 O
0.35672142074885327 0.8365483042146765 0.2377763234211313 O
0.8365483042146765 0.35672142074885327 0.2622236765788686 O
0.6432785792511462 0.16345169578532456 0.762223676578869 O
0.0694410866386182 0.2465573168771895 0.5888664499027847 O
0.7534426831228106 0.9305589133613823 0.08886644990278468 O
0.9305589133613823 0.7534426831228106 0.4111335500972155 O
0.24655731687718951 0.0694410866386182 0.9111335500972153 O
0.2869221966006776 0.5153404150002335 0.041097550121210996 O
0.16345169578532454 0.6432785792511463 0.737776323421131 O
0.5153404150002335 0.28692219660067764 0.4589024498787891 O
