System
1.0
-3.953864172606303 3.9538640423619147 1.8860995283975246
3.953864172606303 -3.9538640423619147 1.8860995283975246
3.9538640423619125 3.9538641726063015 -1.8860995283975246
Zn Cl O 
1 4 1 
direct
0.0601888877109385 0.0601888877109385 1.1814446637901073e-35 Zn
0.1812212543180703 0.755974266105918 0.817090520857789 Cl
-0.061116254751870415 0.3641296909378688 0.1829084366197985 Cl
0.3641296909378688 0.18122125431807032 0.42524594568973195 Cl
0.7559742661059179 -0.061116254751870415 0.574753011787848 Cl
0.560194825823914 0.560194825823914 5.38155651732433e-34 O
