System
1.0
6.094992817334628 -3.9913766e-09 3.518946179707816
2.0316645996271796 5.746413979229654 3.5189461797078163
-4.1321773e-09 -2.9218903e-09 7.037891373736545
Yb V O 
4 4 14 
direct
0.0 0.0 0.0 Yb
0.5 0.0 9.999999975553106e-07 Yb
7.824180502955855e-18 0.4999990000000025 9.999999975103344e-07 Yb
0.0 0.0 0.5000009999999975 Yb
0.5000009999999975 0.4999990000000025 0.5000000000000001 V
0.5000009999999975 0.4999990000000025 9.999999976180336e-07 V
7.824180502955855e-18 0.4999990000000025 0.5 V
0.5 0.0 0.5 V
0.5661000665488641 0.1839009334516757 0.5660990665486114 O
0.18390093345113354 0.5660990665483243 0.18389893345138666 O
0.18389893345083427 0.1839009334511479 0.5661000665486189 O
0.8749999999999999 0.8750000000000001 0.8750009999999974 O
0.4338999334508389 0.43389893345114594 0.8161000665486188 O
0.8161010665484819 0.4338989334512873 0.43389993345123523 O
0.4339009334511336 0.8161000665483218 0.4338999334513913 O
0.8161010665488687 0.4338989334516736 0.8161000665486089 O
0.43390093345151987 0.8161000665487081 0.8161000665487649 O
0.5661000665491609 0.5660990665488522 0.18389993345138103 O
0.8161000665491607 0.8161000665488497 0.43389993345138117 O
0.1249990000000025 0.125 0.1250009999999975 O
0.5661000665484773 0.1839009334512894 0.18389893345123082 O
0.1839009334515199 0.5660990665487107 0.5661000665487647 O
