System
1.0
5.415816775284878 -0.1078892514834035 1.3889653885609006
-0.9571741762990951 5.33165349870646 1.388965388560901
-0.0283887396276707 -0.0332603656378478 10.194714778180577
V Zn O 
4 4 14 
direct
0.49801001112031523 0.0018164613076551033 0.7051035538012957 V
-0.0018164613076552948 0.5019899888796843 0.7948964461987043 V
0.5019899888796842 -0.0018164613076552985 0.2948964461987039 V
0.0018164613076550912 0.4980100111203152 0.20510355380129577 V
0.6129469740818598 0.7568570391253324 0.018698129680986487 Zn
0.24314296087466758 0.38705302591814017 0.4813018703190133 Zn
0.38705302591814006 0.24314296087466766 0.9813018703190138 Zn
0.7568570391253323 0.6129469740818597 0.5186981296809859 Zn
0.4375502260772061 0.9806534575705532 0.13877244391606441 O
0.019346542429446587 0.5624497739227932 0.3612275560839356 O
0.1983697305755356 0.8016302694244642 0.75 O
0.8016302694244641 0.1983697305755356 0.25 O
0.2966263981538763 0.4826627185595295 0.10686137243257957 O
0.5173372814404703 0.7033736018461235 0.3931386275674199 O
0.28357013529724895 0.11871302951511169 0.3907959512232905 O
0.4826627185595294 0.29662639815387626 0.6068613724325794 O
0.8812869704848881 0.7164298647027508 0.10920404877670951 O
0.9806534575705533 0.4375502260772061 0.6387724439160639 O
0.1187130295151117 0.28357013529724895 0.8907959512232901 O
0.7164298647027507 0.8812869704848878 0.6092040487767098 O
0.7033736018461235 0.5173372814404704 0.8931386275674205 O
0.5624497739227933 0.0193465424294466 0.8612275560839361 O
