System
1.0
2.858212131823477 0.0446407742775043 -0.0212688708972992
-0.0815990564838786 4.569472835947213 -1.4035311807901376
0.0437422381615521 -0.0117732928308051 5.722385246824978
Na Fe O 
1 2 4 
direct
8.27403046856412e-19 0.4999999999999999 0.49999999999999994 Na
0.49999999999999994 0.49999999999999994 1.44263784093773e-17 Fe
0.0 0.0 0.0 Fe
5.4378296844201516e-05 0.27224814895185645 0.8165429380178135 O
0.5000856963789452 0.7698297460570795 0.8134209649976727 O
0.9999456217031556 0.7277518510481434 0.1834570619821865 O
0.4999143036210547 0.2301702539429203 0.1865790350023268 O
