System
1.0
6.58610449968202 0.0036015523137967 0.0004591899203666
-5.462498401743817 6.485950209039962 -1.459802915e-07
0.0018459846732406 0.0015546978155632 7.096416056629861
Ca Y N 
6 4 8 
direct
0.26575876842587076 0.028403701472908004 0.951909612963341 Ca
0.7342412315739153 0.7626449330469254 0.5480903870366253 Ca
0.7342412315741288 0.9715962985270917 0.0480903870366589 Ca
0.265758768426085 0.23735506695307493 0.4519096129633746 Ca
-8.152325753690665e-14 0.6499496875205377 0.7499999999999873 Ca
8.171577798840469e-14 0.3500503124794621 0.2500000000000128 Ca
0.715289783413777 0.49712489025518425 0.11187054480158161 Y
0.28471021658612533 0.781835106841479 0.3881294551984231 Y
0.7152897834138748 0.2181648931585211 0.611870544801577 Y
0.284710216586223 0.5028751097448156 0.8881294551984182 Y
0.2353594541946301 0.7222256432417997 0.0660045971789502 N
0.25637648786929546 0.9787005090670088 0.5955570336587437 N
0.7436235121302813 0.7223240211972192 0.9044429663412171 N
0.7436235121307051 0.0212994909329915 0.40444296634125637 N
0.2563764878697188 0.2776759788027808 0.0955570336587827 N
0.7646405458053698 0.2777743567582001 0.93399540282105 N
0.23535945419483997 0.5131348109528352 0.5660045971789617 N
0.7646405458051602 0.4868651890471651 0.43399540282103827 N
