System
1.0
4.900170461941792 0.0 0.0
-0.0 6.449533476221719 0.0
0.0 0.0 10.741603615930385
B H C N 
4 32 4 4 
direct
0.816784115859681 0.25 0.4705976965019026 B
0.6832158841403191 0.25 0.9705976965019018 B
0.1832158841403187 0.7500000000000001 0.5294023034980984 B
0.3167841158596806 0.7500000000000001 0.029402303498097603 B
0.12085874279644161 0.25 0.7623453567898941 H
0.3160387800095111 0.7500000000000001 0.9154460927528945 H
0.22605892441982184 0.1219824980800581 0.46120180614177086 H
0.7941201339926599 0.40472314822477745 0.9278234122988473 H
0.2941201339926597 0.9047231482247773 0.5721765877011527 H
0.20587986600734 0.9047231482247773 0.0721765877011528 H
0.8160387800095105 0.25 0.5845539072471058 H
0.20587986600734 0.5952768517752229 0.0721765877011528 H
0.7058798660073402 0.09527685177522252 0.4278234122988473 H
0.7941201339926599 0.09527685177522252 0.9278234122988473 H
0.4373919630861936 0.11171777775845092 0.7485857255136723 H
0.9373919630861944 0.8882822222415492 0.7514142744863279 H
0.7260589244198224 0.6219824980800575 0.038798193858229406 H
0.7260589244198224 0.8780175019199428 0.038798193858229406 H
0.2739410755801784 0.1219824980800581 0.9612018061417705 H
0.2739410755801784 0.3780175019199415 0.9612018061417705 H
0.7739410755801777 0.6219824980800575 0.5387981938582296 H
0.062608036913806 0.38828222224154885 0.24858572551367192 H
0.2941201339926597 0.5952768517752229 0.5721765877011527 H
0.3791412572035584 0.25 0.2623453567898936 H
0.22605892441982184 0.3780175019199415 0.46120180614177086 H
0.5626080369138057 0.6117177777584509 0.2514142744863282 H
0.9373919630861944 0.6117177777584509 0.7514142744863279 H
0.1839612199904891 0.7500000000000001 0.4154460927528945 H
0.6208587427964414 0.7500000000000001 0.737654643210106 H
0.5626080369138057 0.8882822222415492 0.2514142744863282 H
0.8791412572035587 0.7500000000000001 0.23765464321010624 H
0.7739410755801777 0.8780175019199428 0.5387981938582296 H
0.4373919630861936 0.38828222224154885 0.7485857255136723 H
0.7058798660073402 0.40472314822477745 0.4278234122988473 H
0.6839612199904896 0.25 0.08455390724710571 H
0.062608036913806 0.11171777775845092 0.24858572551367192 H
0.8383555980804266 0.7500000000000001 0.7128180249261588 C
0.6616444019195736 0.7500000000000001 0.21281802492615903 C
0.3383555980804271 0.25 0.7871819750738414 C
0.1616444019195728 0.25 0.2871819750738413 C
0.6271269256969926 0.7500000000000001 0.0754377406046039 N
0.1271269256969921 0.25 0.4245622593953962 N
0.8728730743030075 0.7500000000000001 0.5754377406046045 N
0.3728730743030075 0.25 0.9245622593953956 N
