System
1.0
5.91441171774452 -0.0283830644335634 -0.3242715849058737
-0.1628411106667315 6.377726743368167 -3.528320398370472
-0.0592476069094717 -0.0118617484994173 7.513342940111727
Cu B C N 
1 2 8 8 
direct
0.5 1.142099026244563e-19 1.235684171039104e-18 Cu
0.13498190732153462 0.33375448848270894 0.6675079769686703 B
0.8650180926784652 0.666245511517292 0.33249202303132847 B
0.1313845399482187 0.6615854727950509 0.3231709455877737 C
0.24040455003819203 0.2121638264716654 0.7787148930684649 C
0.19869846928233065 0.2186985745626393 0.4373981491272773 C
0.7595954499624364 0.43344893340606633 0.22128510693211026 C
0.868615460051782 0.3384145272049495 0.6768290544122264 C
0.8013015307176705 0.7813014254373607 0.5626018508727229 C
0.2404045500375633 0.5665510665939338 0.7787148930678883 C
0.7595954499618083 0.7878361735283351 0.22128510693153464 C
0.31824024025430114 0.7353219865683623 0.857981332920154 N
0.6729224124356107 0.3404438000804774 0.680887600162154 N
0.7570449882523133 0.8658784699587824 0.7317589399182269 N
0.3182402402534844 0.1226593463522261 0.8579813329197707 N
0.6817597597465149 0.8773406536477736 0.14201866708022887 N
0.24295501174768666 0.1341215300412181 0.2682410600817725 N
0.681759759745699 0.2646780134316375 0.1420186670798472 N
0.3270785875643926 0.6595561999195223 0.3191123998378457 N
