System
1.0
5.166506904379027 6.521732e-10 2.9828834926666663
1.7221689687412167 4.871028656172609 2.9828834926666663
1.8446249e-09 1.3043466e-09 5.965767978944465
Tb Ba Ir O 
1 2 1 6 
direct
0.49999999999999994 0.5 0.49999999999999994 Tb
0.24999999999999997 0.25 0.24999999999999997 Ba
0.7499999999999999 0.75 0.7499999999999999 Ba
0.0 0.0 0.0 Ir
0.23552127538115977 0.7644787246184748 0.7644787246189385 O
0.2355212753813213 0.7644787246186362 0.2355212753812654 O
0.7644787246186784 0.2355212753813639 0.7644787246187345 O
0.23552127538103637 0.2355212753814447 0.764478724618921 O
0.7644787246188403 0.2355212753815254 0.23552127538106135 O
0.7644787246189634 0.7644787246185554 0.23552127538107917 O
