System
1.0
0.0 5.570422855726874 0.0001653938406027
7.957488911934196 0.0 0.0
0.0 -0.3278470750342871 -5.587827794489933
Mg Ta Bi O 
4 2 2 12 
direct
0.9708574101125443 0.25 0.0182696754282567 Mg
0.4730980234866442 0.25 0.4774945552046568 Mg
0.5269019765133557 0.7500000000000001 0.5225054447953431 Mg
0.029142589887455907 0.7500000000000001 0.9817303245717433 Mg
0.49999999999999994 0.0 6.880276694573621e-22 Ta
0.49999999999999994 0.5 6.880276694573621e-22 Ta
3.6944307338017745e-18 0.0 0.5 Bi
3.6944307338017745e-18 0.5 0.5 Bi
0.18037608795228888 0.07182270441046822 0.8762295744092575 O
0.12634433027637 0.25 0.3504755709769709 O
0.819623912047711 0.9281772955895319 0.1237704255907425 O
0.6327628692082131 0.0728409040289746 0.6934638223725542 O
0.3672371307917872 0.5728409040289748 0.3065361776274464 O
0.6327628692082131 0.4271590959710255 0.6934638223725542 O
0.3672371307917872 0.9271590959710254 0.3065361776274464 O
0.18037608795228888 0.4281772955895319 0.8762295744092575 O
0.8736556697236303 0.7500000000000001 0.6495244290230292 O
0.819623912047711 0.5718227044104682 0.1237704255907425 O
0.40571373936266364 0.7500000000000001 0.8685576740898916 O
0.5942862606373361 0.25 0.1314423259101085 O
