System
1.0
4.306845270546894 3.4224565887522322 1.5507273720225379
0.0075969496570776 0.0367719038705261 -5.715371198424351
-4.577183185819281 3.469701265596409 1.091524880727015
Rb Ag O 
2 2 4 
direct
0.6463097102490309 0.3536902897507065 0.250000000000383 Rb
0.3536902897509695 0.646309710249294 0.7499999999996176 Rb
0.0 0.0 0.0 Ag
-3.425110983888265e-17 -5.5161868897145585e-18 0.5 Ag
0.1506847278825809 0.24971738881892527 0.3220367329896084 O
0.24971738882200128 0.1506847278825961 0.8220367329878555 O
0.8493152721174188 0.7502826111810746 0.677963267010392 O
0.7502826111779983 0.8493152721174039 0.1779632670121444 O
