System
1.0
4.00557631620018 -0.0 0.0
-2.00278815810009 3.4689308466246866 -0.0
-0.0 0.0 3.0961855991832885
Li Au O 
1 1 1 
direct
0.33333249790463526 0.6666669165690777 0.0 Li
0.0 0.0 0.0 Au
0.6666657256594277 0.3333334583011762 0.0 O
