System
1.0
4.6456234321402405 0.0069180067424402 0.0060058134149875
-2.326350623649294 4.021188593925227 0.0060058134149875
0.0116248813743596 0.0201900618265361 14.149572498181131
Na Ca Be B O F 
2 2 4 4 12 2 
direct
0.1108510456196427 0.1196898309693791 0.36272065608329984 Na
0.11968983096937912 0.11085104561964268 0.8627206560832991 Na
0.11457784797754011 0.09629576771159018 0.6117924785017832 Ca
0.0962957677115902 0.11457784797754009 0.11179247850178259 Ca
0.7409452523474315 0.4213959707906467 0.47407454709013247 Be
0.4213959707906468 0.7409452523474314 0.9740745470901324 Be
0.792115665737038 0.42866234464631736 0.24903452496813616 Be
0.4286623446463174 0.7921156657370377 0.7490345249681353 Be
0.7717648542535991 0.40824853362983576 0.0005550883651214999 B
0.4082485336298358 0.7717648542535989 0.5005550883651215 B
0.4756787258621455 0.7804165894742389 0.22280376762161858 B
0.780416589474239 0.47567872586214544 0.7228037676216184 B
0.7479433109706114 0.7556784273305929 0.7317008807557228 O
0.08977860299377383 0.525450032999205 0.6954935356813879 O
0.525450032999205 0.08977860299377378 0.19549353568138778 O
0.5053600775210322 0.16763460797410487 0.7358565135523242 O
0.16763460797410487 0.5053600775210321 0.23585651355232357 O
0.7556784273305929 0.7479433109706112 0.23170088075572276 O
0.44410339063056714 0.4953553736811028 0.4955717460945415 O
0.0999771416154437 0.7424672799250348 0.48573182739992904 O
0.07987024480515359 0.6717580074729327 0.025186255520261696 O
0.6717580074729326 0.07987024480515359 0.5251862555202617 O
0.49535537368110283 0.44410339063056703 0.9955717460945414 O
0.7424672799250349 0.09997714161544369 0.9857318273999286 O
0.698875619364707 0.31170445369633126 0.3610761783657466 F
0.31170445369633126 0.6988756193647069 0.8610761783657466 F
