System
1.0
3.937146366966117 -0.0375648581707791 0.7845440716351855
0.6363689039067987 3.885558206294622 0.7845441079859915
-0.0446467608539766 -0.0375648462318878 4.0143036390540585
Ag N O 
1 1 3 
direct
0.0047127707209873 0.0047127707218397 0.0047127707215158 Ag
0.4254299889135074 0.42542998891392186 0.4254299889137642 N
0.5658602306313001 0.1367367790947457 0.5658602306278554 O
0.5658602306310461 0.5658602306307013 0.13673677910117357 O
0.1367367791031588 0.5658602306387898 0.5658602306356902 O
