System
1.0
4.6720810218358535 0.0080995905751908 -2.447757277931963
-2.9639000041826167 4.346449608850694 -0.3789358606101119
0.0055232875646082 -0.0080995799670607 5.274449419921216
Ca Ge N 
2 2 4 
direct
0.5 0.25000000000000006 0.75 Ca
8.20701078273271e-17 0.5 0.5 Ca
0.0 0.0 0.0 Ge
0.5 0.7500000000000001 0.24999999999999994 Ge
0.576070516682456 0.8750000000012762 0.9510705166839366 N
0.923929483317675 0.0489294833178301 0.6250000000003596 N
0.4239294833175439 0.37499999999872397 0.2989294833160634 N
0.07607051668232526 0.7010705166821699 0.1249999999996402 N
