System
1.0
4.679162845467097 -0.0625665904175442 1.5594492469087262
0.4248627904242059 4.69638493678206 1.628215587780252
0.1405249068553346 0.0692367581162791 7.577585078383574
Li Co O F 
5 5 9 1 
direct
0.6931163670980752 0.494719904161959 0.0905085617808172 Li
0.11132963803842161 0.49769704293177414 0.3062095910778387 Li
0.4986446418858741 0.49953782805926567 0.5094737174240874 Li
0.898982122492693 0.5120629366362253 0.6953386748548791 Li
0.29673377709563403 0.5105712809031132 0.8991694588369736 Li
0.6010878265766905 0.004701268356849495 0.7994947432909166 Co
0.2001460890879867 0.0059075067363793966 0.5998647064428944 Co
0.0021546347748133015 0.008118632027977395 0.995863689384904 Co
0.3934050116411429 0.006238255257014098 0.19831511078891811 Co
0.7999854687718497 0.017249327802966896 0.39728552389375305 Co
0.9478783148742957 0.7843300588052314 0.8442382146362784 O
0.0496613607793584 0.21508397513561678 0.1524272773329796 O
0.34622532005857914 0.7801995601069789 0.043732422233792555 O
0.45101921183292787 0.21713794429843078 0.35134676333436393 O
0.8555701060075097 0.23328126518567027 0.5648532785824064 O
0.147469689221869 0.7867998058837387 0.44613237151779994 O
0.2541071671641388 0.22215622922620762 0.7550732822991137 O
0.5506815608104296 0.7892978162210963 0.6425126774459369 O
0.6500173819718186 0.21639865964674274 0.9580517541186407 O
0.7517823098158606 0.698510702616783 0.25011018072271657 F
