System
1.0
-3.9260548185845043 3.9260549220384333 2.197251812011584
3.9260548185845043 -3.9260549220384333 2.197251812011584
3.9260549220384333 3.9260548185845043 -2.197251812011584
Sc N Cl 
1 1 4 
direct
-0.057526975785070704 -0.057526975785070704 -4.955576781802664e-35 Sc
0.44247556835142726 0.4424755683514272 1.1821865664035866e-34 N
0.23723864464877636 0.0508269343437891 0.4029903322553656 Cl
0.8342487667152957 0.2372387454054132 0.1864117103171234 Cl
0.05082693434378911 0.647836955641543 0.8135886432481318 Cl
0.6478370563981727 0.8342487667152958 0.5970100213098827 Cl
