System
1.0
-3.086642136320426 -5.004026996401409 0.5017282666706389
-3.086642136320426 5.004026996401409 0.5017282666706389
-0.0182139408916903 0.0 -12.017489564861716
Ca Si N 
10 4 12 
direct
0.7298921607179029 0.37937143416222224 0.2614387006410619 Ca
0.37937143416222224 0.7298921607179029 0.2614387006410619 Ca
0.27010783928209653 0.6206285658377776 0.738561299358938 Ca
0.6206285658377775 0.2701078392820965 0.7385612993589379 Ca
0.0899793577022662 0.0899793577022662 0.20705557230857768 Ca
0.9100206422977342 0.9100206422977342 0.7929444276914224 Ca
0.8119953315674336 0.18800466843256614 0.49999999999999994 Ca
0.18800466843256625 0.8119953315674338 0.49999999999999994 Ca
0.7587962276584189 0.24120377234158064 3.5938934136808644e-19 Ca
0.24120377234158064 0.7587962276584189 3.5938934136808644e-19 Ca
0.3234090530751029 0.3234090530751029 0.9311714449506736 Si
0.6765909469248971 0.6765909469248971 0.06882855504932639 Si
0.3490372854813172 0.3490372854813171 0.42514091051123537 Si
0.650962714518683 0.650962714518683 0.5748590894887642 Si
0.35629448536234387 0.35629448536234387 0.5748626861266919 N
0.09366153216098382 0.3883597616546579 0.3621204502231383 N
0.3883597616546579 0.09366153216098382 0.3621204502231383 N
0.906338467839016 0.6116402383453415 0.6378795497768613 N
0.6116402383453414 0.9063384678390161 0.6378795497768613 N
0.9474166519870543 0.6573199581568557 0.1273942412852154 N
0.6573199581568555 0.947416651987054 0.12739424128521537 N
0.05258334801294618 0.3426800418431447 0.8726057587147843 N
0.3426800418431447 0.0525833480129462 0.8726057587147843 N
0.3901823946064426 0.3901823946064426 0.08516103274160469 N
0.609817605393557 0.609817605393557 0.9148389672583952 N
0.6437055146376559 0.6437055146376559 0.425137313873308 N
