System
1.0
1.6031348000898897 -2.776710633407029 -0.0
1.6031348000898897 2.776710633407029 0.0
0.0 -0.0 5.695477090423413
Zr N 
2 2 
direct
0.0 0.0 0.5 Zr
0.0 0.0 0.0 Zr
0.3333330000000032 0.6666669999999968 0.25 N
0.6666669999999968 0.3333330000000032 0.75 N
