System
1.0
1.6292328280668855 -2.8219137453425454 0.0
1.6292328280668855 2.8219137453425454 -0.0
0.0 -0.0 5.315955982225164
Hf Zn N 
1 1 2 
direct
0.6666669999999968 0.3333330000000032 0.7922972324397466 Hf
0.0 0.0 0.3429061865787598 Zn
0.0 0.0 0.9768817272839688 N
0.3333330000000032 0.6666669999999968 0.5406148536975206 N
