System
1.0
3.5800719430237047 0.0048044009946778 6.216885218376794
1.6657773699290512 3.168930961066349 6.216885218949659
0.0079413551224125 0.0048043975259314 7.174016618308274
Ca Br N 
2 1 1 
direct
0.22595574248307998 0.22595574248308237 0.22595574248307357 Ca
0.7740442575169193 0.7740442575169175 0.7740442575169265 Ca
0.0 0.0 0.0 Br
0.4999999999999997 0.49999999999999994 0.5 N
