System
1.0
5.742002220142716 0.0170950850662642 -1.5423272526171987
-0.962355117617045 6.609628481053118 -2.517443052786604
-0.0016093125301062 0.013306575101366 9.532105825610456
Sr Os N 
6 6 10 
direct
0.8204632713365019 0.4229596960426762 0.6183119657623481 Sr
0.1795367286634981 0.5770403039573238 0.3816880342376515 Sr
0.6595803267192929 0.8667011539664857 0.8930939312057172 Sr
0.34041967328070694 0.13329884603351413 0.1069060687942828 Sr
0.6637979374798312 0.6896743946155387 0.21170939169135614 Sr
0.33620206252016827 0.3103256053844612 0.7882906083086436 Sr
0.9036450230357652 0.12776587382480553 0.2919287927396396 Os
0.352043565190561 0.08800771454734509 0.4135512001387044 Os
0.09635497696423462 0.8722341261751946 0.7080712072603602 Os
0.11904513784547861 0.6761274344216789 0.03146872884631541 Os
0.8809548621545213 0.32387256557832084 0.9685312711536844 Os
0.6479564348094389 0.911992285452655 0.5864487998612951 Os
0.1292741867560473 0.7576270659280995 0.8649915431488314 N
0.898297773652421 0.1059474586270416 0.7807851499833598 N
0.1017022263475791 0.8940525413729585 0.21921485001664015 N
0.8264635103296097 0.701450957728669 0.49754903370189946 N
0.17353648967039056 0.2985490422713313 0.5024509662981 N
0.7286570295053411 0.5406774261257721 0.922466711359618 N
0.27134297049465894 0.4593225738742282 0.07753328864038189 N
0.3616593210292409 0.9026695136069572 0.6429835612276757 N
0.6383406789707584 0.0973304863930426 0.3570164387723245 N
0.8707258132439526 0.2423729340719011 0.13500845685116897 N
