System
1.0
4.708954375987058 0.0 0.0
0.0 4.708954375987058 0.0
0.0 0.0 4.708954375987058
Tm In N 
3 1 1 
direct
0.5 0.5 0.0 Tm
0.0 0.5 0.5 Tm
0.5 0.0 0.5 Tm
0.0 0.0 0.0 In
0.5 0.5 0.5 N
