System
1.0
3.753548007509897 0.0 2e-16
-4e-16 6.214010951108358 1.9215431566720396
-0.0 0.0116085793416428 7.333546050199413
Sr Ca Br N 
1 3 2 2 
direct
0.5 0.27096851967053803 0.6883598725493045 Sr
0.0 0.7757158542398894 0.6662447126763944 Ca
0.5 0.7257812424829592 0.3210758401893033 Ca
0.0 0.22659283221192694 0.32127324624921055 Ca
0.0 0.990340902699277 0.012396395235698743 Br
0.5 0.5061351270560948 0.0039210294988675665 Br
0.0 0.5082488018320749 0.49215884881446886 N
0.5 0.9962167198072412 0.4945700547867442 N
