System
1.0
7.467470334968217 0.0268462825062006 0.0299007659367361
0.0424641106584286 6.693553542545462 -1.626006883126689
0.0172512129979751 -1.1330732050899697 7.52383372539432
K C S N 
4 4 4 4 
direct
0.9198663700410908 0.21345934121636453 0.7400948203539843 K
0.5827217918888985 0.2069965854570775 0.2374682152959286 K
0.0800821872511328 0.7862237727168225 0.2596904343335808 K
0.41722188134110977 0.7933144237735659 0.7627538818834558 K
0.526860864067441 0.7515460500335002 0.2334695556094753 C
0.4731607000622217 0.2487290803897178 0.7667388551247887 C
0.9715495932897202 0.7555065853709007 0.7340946711413187 C
0.0284748669581067 0.2442216318445939 0.2656945283519292 C
0.6647923176567911 0.7071986631545572 0.380224579687949 S
0.1667146459111196 0.2862030738620893 0.1171000468238382 S
0.8332670015607074 0.7135149833295392 0.882647259009931 S
0.3351989831025852 0.2930610862072766 0.6200027144636983 S
0.9304011515076799 0.207980981998678 0.3724661625683387 N
0.42915934488119895 0.7896149009940726 0.1279223044267493 N
0.5708780899000769 0.21066331404928923 0.8722777592682621 N
0.06964921058011979 0.7917675256019476 0.6273532116567461 N
