System
1.0
2.955786484742676 0.0508160099483769 0.5741660262948132
-1.4969213049473782 3.034224423388258 -0.4698466043175636
1.662348072928561 -0.5335419811946936 7.276153948838482
Cu O 
2 4 
direct
0.0628930859018327 0.1332298189613275 0.8373888880906954 Cu
0.06428044607168275 0.9117824728815819 0.2254671906293272 Cu
0.36162163121274515 0.7478962468048761 0.8454639142023987 O
0.32671029612286173 0.8142377555920746 0.4143410791055359 O
0.824704228692327 0.23222564659282507 0.1254076711492095 O
0.35869531199855204 0.162495059167311 0.556670256822834 O
