System
1.0
6.623773437844339 0.2494609077662336 0.2055683521566224
3.5279258745781057 5.6116262195725355 0.2055683548062355
3.5517456883474674 2.050601455934702 5.79997602582406
Zn Sb O 
2 4 8 
direct
0.12500000000000006 0.6250000000000002 0.625 Zn
0.6250000000000001 0.125 0.625 Zn
0.9705901912988961 0.9705901912983597 0.029409808702006605 Sb
0.2794098087011038 0.2794098087016404 0.2205901912979934 Sb
0.6250000000000002 0.6250000000000001 0.125 Sb
0.6250000000000001 0.625 0.625 Sb
0.3834927584542235 0.3834927584539731 0.418685397529269 O
0.38078419891401294 0.8859718906646229 0.3666229552104778 O
0.38349275845412006 0.38349275845338937 0.8143300855638287 O
0.8859718906645577 0.38078419891386894 0.36662295521065447 O
0.3640281093354427 0.8692158010861307 0.8833770447893455 O
0.8692158010859871 0.36402810933537705 0.883377044789522 O
0.8665072415458801 0.8665072415466105 0.435669914436171 O
0.8665072415457764 0.866507241546027 0.8313146024707313 O
