System
1.0
4.121607640001846 0.0 0.0
-0.0 4.121607640001846 0.0
0.0 0.0 4.121607640001846
Y Sn O 
1 1 3 
direct
0.0 0.0 0.0 Y
0.5 0.5 0.5 Sn
0.0 0.5 0.5 O
0.5 0.0 0.5 O
0.5 0.5 0.0 O
