System
1.0
4.858401674670527 -0.0187272846274062 -2.204936759004603
-2.6546606151725007 6.711813674334623 0.0008267128759592
0.1057407983627705 0.0412834087339975 6.483884566952327
Li Co O F 
8 2 2 10 
direct
0.7256517489801666 0.6816387995230673 0.6187233163360817 Li
0.7256519887121131 0.18163772449450943 0.6187221674025515 Li
0.2747325189997235 0.3188778762058848 0.383120287094143 Li
0.27473164913846665 0.8188787120379404 0.3831210119015605 Li
0.670170319465207 0.1677375670558335 0.19838120228883832 Li
0.670171835351437 0.6677386391022874 0.1983832118999641 Li
0.3302045653328885 0.8327833171288256 0.8034619429751355 Li
0.3302033421376379 0.3327825956565555 0.8034597306784373 Li
0.00017353060920410448 0.5002580454191844 0.000913764613138071 Co
0.00017218648162670004 0.0002530270982506 0.0009140978279216001 Co
0.00017229738817913016 0.75025676027138 0.0009084800600638746 O
0.0001726349163930159 0.2502532052345686 0.0009093627055324947 O
0.00017764222544732803 0.7502653301650082 0.5009015589931839 F
0.0001779672541203069 0.250263071112708 0.5008999904822031 F
0.7034225805321016 0.426059501323463 0.1227344786915656 F
0.7034217638030156 0.926058682651582 0.1227332326324119 F
0.29690597753718634 0.5744489565685753 0.8790794565437773 F
0.2969073146943599 0.0744505498394485 0.8790806024186458 F
0.6287588267818711 0.407406029940855 0.6787252504086474 F
0.6287589296589979 0.9074068365220752 0.6787260644183946 F
0.3715927628662305 0.5931046467556639 0.323105279369305 F
0.37159261713362113 0.0931041258923365 0.3231045102585023 F
