System
1.0
-5.133271907642375 -5.133271907642375 0.0
-5.133271907642375 0.0 -5.133271907642375
-0.0 -5.133271907642375 -5.133271907642375
Te Br N 
1 6 2 
direct
0.0 0.0 0.0 Te
0.7434612065178254 0.2565387934821746 0.2565387934821746 Br
0.7434612065178254 0.2565387934821746 0.7434612065178254 Br
0.7434612065178254 0.7434612065178254 0.25653879348217457 Br
0.25653879348217457 0.7434612065178254 0.7434612065178254 Br
0.25653879348217457 0.7434612065178254 0.2565387934821746 Br
0.2565387934821747 0.2565387934821746 0.7434612065178254 Br
0.25 0.25 0.25 N
0.75 0.75 0.7500000000000001 N
