System
1.0
6.3221017245086735 0.0132226876047604 0.6813714787372523
0.588785002971472 6.294638772382328 0.6813714787372521
0.0179975125698128 0.0164270983437388 6.411442194250604
Nd Co N 
2 17 2 
direct
0.6516462519477368 0.6516462519477366 0.6589461935234695 Nd
0.34835374805226366 0.3483537480522636 0.34105380647653016 Nd
5.4342573266112076e-18 0.5 7.679464969757649e-18 Co
0.5000000000000001 6.052510994355228e-21 -6.198322838056808e-18 Co
4.681471379199782e-19 1.0485408189293477e-20 0.5 Co
0.2810770094884458 0.7189229905115545 -8.948559806821433e-18 Co
0.7208071429940424 0.0008685206825389003 0.2777304337958699 Co
-0.0008685206825387934 0.27919285700595764 0.7222695662041299 Co
0.2791928570059576 -0.0008685206825388 0.7222695662041299 Co
0.0008685206825389075 0.7208071429940424 0.2777304337958699 Co
0.7189229905115546 0.2810770094884457 -2.282634761463589e-17 Co
0.6572839026067998 0.1413125800165163 0.6624409622829045 Co
0.14131258001651636 0.6572839026067997 0.6624409622829045 Co
0.653164365963754 0.6531643659637539 0.1305660008612042 Co
0.34271609739320064 0.8586874199834837 0.3375590377170954 Co
0.8586874199834839 0.3427160973932006 0.33755903771709533 Co
0.34683563403624584 0.34683563403624573 0.8694339991387959 Co
0.09610382349513591 0.0961038234951359 0.0930059344051344 Co
0.903896176504864 0.903896176504864 0.9069940655948655 Co
6.562009331859446e-18 0.49999999999999994 0.5 N
0.5000000000000001 1.340397656529225e-19 0.5 N
