System
1.0
4.519139995081216 6.3243004e-09 -1.9914102177248478
-0.8775374718112059 4.4331204104687565 -1.991410207332241
0.0385591664384164 0.0469402053854826 6.210886517117954
Li H N 
4 8 4 
direct
0.25000000000000006 0.7500000000000001 0.49999999999999994 Li
0.0077217599213116155 0.5077217599229221 0.015443519838297955 Li
0.49227824007868864 0.9922782400770779 0.9845564801617017 Li
0.0 0.0 0.0 Li
0.7043315581528119 0.7926340299310072 0.24985872063167935 H
0.5427743092989097 0.295668441861681 0.750141279378951 H
0.20736597007058494 0.45447283750868395 0.7501412793577193 H
0.5455271624776906 0.45722569069863295 0.24985872063165035 H
0.9631656401336096 0.0840990503057205 0.3841688765515919 H
0.4210042364217891 0.3000698262528844 0.3841688765505994 H
0.9159009496989757 0.5789957635784264 0.6158311234505469 H
0.6999301737456215 0.036834359862971504 0.6158311234472612 H
0.3486978740008274 0.36134203856308467 0.23278179469614643 N
0.12855924386572834 0.6513021259970277 0.7672182053038465 N
0.6386579614379161 0.11591507930586581 0.7672182053054557 N
0.8840849206955282 0.8714407561340219 0.23278179469455051 N
