System
1.0
4.954189934990036 -0.0181099909737422 -0.5582138997269672
-0.8349758267745861 6.130692028704867 -1.431633878688364
-0.0154735244666935 0.1002908509774116 6.362039475685246
H C S N 
10 6 2 2 
direct
0.8644699782119235 0.17225700794298857 0.05462800817685599 H
0.18791433487018638 0.8449067811214924 0.9860293904326558 H
0.7249188180850039 0.1098590957310022 0.4910598602439892 H
0.7253559475692071 0.610852995975926 0.9913617145106441 H
0.7252011766255664 0.8506779107799388 0.7498535748362205 H
0.185340704469764 0.3477371316051127 0.4888338460194883 H
0.8632430728156201 0.9140834381502101 0.31351195236203916 H
0.8606742823974857 0.41296303236439097 0.8139235218945634 H
0.8618902587794269 0.6726775729207518 0.5534976282484119 H
0.7247740855859798 0.3503665194802733 0.24885406444905098 H
0.9236467316562671 0.30455792724213 0.2015306468503469 C
0.923057662578722 0.8040793126487275 0.700912677508822 C
0.9227554190804511 0.5604751380671952 0.9451121083707394 C
0.9233399070029378 0.06109584465975969 0.4455953446696576 C
0.06655964657910671 0.4981659916764469 0.1390469241609217 C
0.06655940281516011 0.9979723564973237 0.6392435064818928 C
0.34648803112351917 0.6403692303993842 0.2812242881916917 S
0.34649003306052056 0.13951768654288796 0.7820751571434182 S
0.0816016467264338 0.7226427982080895 0.8638814366984465 N
0.08173685996671819 0.22481222798597067 0.36604234875015823 N
