System
1.0
3.6372773985288664 -6.4204766e-09 -1.0497562655224995
-0.3029696397388228 3.6246366233191263 -1.04975626663392
0.0005542851582244 0.0006029992916587 6.828161291259251
Sr Co O 
2 1 4 
direct
0.6436627004451879 0.6436627004447831 0.2873244008901508 Sr
0.3563372995548115 0.35633729955521704 0.712675599109849 Sr
0.0 0.0 0.0 Co
0.8427203703616521 0.8427203703620724 0.6854407407235336 O
0.1572796296383479 0.15727962963792771 0.3145592592764666 O
3.525173365955686e-18 0.5000000000000001 1.7986412302628064e-17 O
0.49999999999999994 -3.2878725708930293e-22 4.108624494813607e-18 O
