System
1.0
0.7607323808586312 -2.6741232865973035 0.0
5.265962734274805 2.9433249201881644 0.0
-0.0 -0.0 5.940427487150011
Na Cu O 
2 2 4 
direct
0.6322236158457433 0.2644492317061334 0.45592493270339857 Na
0.36777638415425706 0.7355507682938661 0.9559249327033978 Na
0.12792260571380598 0.2558462113974587 0.9622988739285311 Cu
0.8720773942861936 0.7441537886025409 0.4622988739285308 Cu
0.5499091214518399 0.09981724290810579 0.0990534746208895 O
0.7098626823014423 0.4197253645041608 0.8295347187471881 O
0.2901373176985576 0.5802746354958392 0.3295347187471883 O
0.45009087854816016 0.9001827570918945 0.5990534746208896 O
