System
1.0
5.2390297957192375 0.0030100336015835 -1.626017041408471
-0.5877926171343089 5.20175661268112 -1.639315036978959
-0.0385080060492674 -0.0201020420683016 9.006656097195194
Sr Mn Ga O 
4 2 2 10 
direct
0.8775824462144424 0.4031614793908379 0.7807503852786511 Sr
0.1224200151489343 0.5968397499155319 0.21925046709532878 Sr
0.4031665995885171 0.8775869730062734 0.7807499978595343 Sr
0.5968347650652651 0.12241390003442947 0.2192498850947262 Sr
1.1108129584e-06 -2.2603520829999994e-07 -1.7932293940000002e-07 Mn
0.49999890770953187 0.49999927135750666 -1.5400572292289569e-06 Mn
0.183089440091631 0.18312955211669685 0.5000069973797945 Ga
0.8169084620906059 0.8168704300057399 0.4999925336393963 Ga
0.6206951119617046 0.6206597220552913 0.2875993089553532 O
0.3793031825845393 0.37933961947961015 0.7124033766294753 O
0.171483815641826 0.8285442113195652 0.50000043248813 O
0.8285139576348474 0.17145601930597448 0.5000004039288362 O
0.24346153914924767 0.24346273081414882 0.9869219553183147 O
0.2500072162040353 0.7500113346922649 1.4824054346970858e-05 O
0.7565396101666475 0.7565358570664528 0.01307725529005425 O
0.8330695406267487 0.8330356200885467 0.7123806080457148 O
0.7499942023309183 0.24998937669809393 0.9999844579267301 O
0.16692907697759474 0.16696437868822145 0.2876208303957843 O
