System
1.0
2.875035975957251 1.63882291465e-05 -0.0003583697092307
-0.0001075953832518 5.067438728271823 -0.0030866671862547
-1.4368202882801613 -2.4409788666093086 7.16147943722671
Li V O F 
4 2 4 2 
direct
0.1719468798912777 0.5030291857310802 0.3439987561081609 Li
0.8294296712720376 0.4772283886525109 0.6587049737595259 Li
0.337375478561759 0.02277906472360134 0.6746264218800272 Li
0.9946293760279212 -0.003027611334484003 0.9893356631744422 Li
0.662749070459611 0.025327489769812823 0.3254934406508026 V
0.5039409095980888 0.4746697961873724 0.0078396417975256 V
0.083318520679126 0.7499988850297616 0.1666670807948862 O
0.5833575658210572 0.2499968562365022 0.1666655880068307 O
0.2445913515196751 0.23811591538419014 0.4891659745805603 O
0.9220849415581137 0.26188303921972395 0.8441676262702965 O
0.7497647514727992 0.7614459481381284 0.4996328623770891 F
0.4168084831385421 0.7385520422617963 0.8337019705998452 F
