System
1.0
3.9300184371435547 -6.806990322240839 -0.0
3.93001846041858 6.806990308802995 -0.0
-0.0 0.0 14.628855811825069
Ba Nb Si O 
2 20 2 38 
direct
0.6666669999999968 0.3333330000000032 0.5922108850487917 Ba
0.3333330000000032 0.6666669999999968 0.0922108850487916 Ba
0.6890179463492456 0.5530292708443656 0.0011926516149835002 Nb
0.18069203507635923 0.9523969096238474 0.673242845221352 Nb
0.04760309037611251 0.22829512545251504 0.673242845221352 Nb
0.4469707291556336 0.13598767550486063 0.0011926516149835002 Nb
0.5237158219073486 0.6363978044387717 0.3389230279415333 Nb
0.3333330000000032 0.6666669999999968 0.8327733971878889 Nb
0.8640123244951184 0.3109820536507765 0.0011926516149835002 Nb
0.9523969096238877 0.7717048745474852 0.1732428452213519 Nb
0.6363978044386243 0.11268198253135425 0.8389230279415331 Nb
0.22829512545247851 0.18069203507635503 0.1732428452213519 Nb
0.11268198253128264 0.47628417809257545 0.3389230279415333 Nb
0.8873180174687175 0.5237158219074244 0.8389230279415331 Nb
0.6666669999999968 0.3333330000000032 0.3327733971878888 Nb
0.3636021955613757 0.8873180174686459 0.3389230279415333 Nb
0.13598767550488183 0.6890179463492238 0.5011926516149835 Nb
0.553029270844366 0.8640123244951394 0.5011926516149835 Nb
0.4762841780926513 0.36360219556122836 0.8389230279415331 Nb
0.3109820536507541 0.4469707291556347 0.5011926516149835 Nb
0.819307964923641 0.04760309037615279 0.1732428452213519 Nb
0.7717048745475217 0.8193079649236448 0.673242845221352 Nb
0.0 0.0 0.8902281966135175 Si
0.0 0.0 0.3902281966135171 Si
0.0 0.0 0.7759895196570316 O
0.9064850763760198 0.5438745576478886 0.0823935526922478 O
0.2574731320105295 0.20500444587767822 0.5966952298938812 O
0.843366816864672 0.2674161507721309 0.2611260750820773 O
0.4240493339074969 0.1566331831353631 0.2611260750820773 O
0.94753131386723 0.7425268679895775 0.5966952298938812 O
0.2050044458777593 0.9475313138672558 0.0966952298938812 O
0.09351492362398074 0.45612544235211117 0.582393552692248 O
0.4963895607189073 0.596618524826557 0.9206302243538509 O
0.13463411975174183 0.6998189470390214 0.2527315911720501 O
0.26741615077216885 0.4240493339074938 0.7611260750820775 O
0.8479109271670145 0.07547024245139798 0.9198968025256102 O
0.5759506660925031 0.8433668168646373 0.7611260750820775 O
0.05246868613277011 0.2574731320104227 0.0966952298938812 O
0.07547024245157699 0.2275593152845595 0.4198968025256099 O
0.6373894812719623 0.09351492362411702 0.0823935526922478 O
0.7325838492278315 0.5759506660925061 0.2611260750820773 O
0.5036104392810928 0.40338147517344314 0.4206302243538509 O
0.36261051872803773 0.9064850763758827 0.582393552692248 O
0.5651848272872234 0.8653658802482292 0.2527315911720501 O
0.0 0.0 0.2759895196570315 O
0.227559315284563 0.1520890728331615 0.9198968025256102 O
0.6998189470389652 0.5651848272872501 0.75273159117205 O
0.1520890728329859 0.9245297575486021 0.4198968025256099 O
0.3001810529610348 0.43481517271274994 0.2527315911720501 O
0.43481517271277653 0.13463411975177123 0.75273159117205 O
0.7724406847154371 0.8479109271668382 0.4198968025256099 O
0.8653658802482581 0.3001810529609786 0.75273159117205 O
0.8997710358923879 0.4963895607189632 0.4206302243538509 O
0.40338147517348083 0.8997710358924064 0.9206302243538509 O
0.10022896410761223 0.5036104392810371 0.9206302243538509 O
0.4561254423520112 0.36261051872800104 0.0823935526922478 O
0.7949955541222408 0.05246868613274441 0.5966952298938812 O
0.15663318313532804 0.7325838492278692 0.7611260750820775 O
0.7425268679894705 0.7949955541223219 0.0966952298938812 O
0.543874557647989 0.6373894812719986 0.582393552692248 O
0.9245297575484231 0.7724406847154405 0.9198968025256102 O
0.5966185248265196 0.1002289641075939 0.4206302243538509 O
