System
1.0
5.07313501451247 0.0798070699388358 -2.9168646557154214
-1.6186785764610834 4.724667963790072 -3.0509932418043433
-0.0026112771160621 -0.0798070699518296 5.851904944223835
Al Co Ge O 
2 3 1 8 
direct
0.617549673719421 0.3760709587695399 0.24147871494988313 Al
0.1345922438196652 0.3760709587695328 0.7585212850501128 Al
0.24577034975045695 0.7457703497504553 0.4999999999999989 Co
0.6247792857233121 0.39494108421482815 0.7701607984915146 Co
0.6247792857233203 0.8546184872318048 0.22983920150848816 Co
0.0137233196868727 0.0137233196868773 7.024231876164154e-16 Ge
0.8767585464065787 0.1389303802768319 0.26217183387025295 O
0.8767585464065807 0.6145867125363118 0.7378281661297432 O
0.8891635351729406 0.1427237072335613 0.7464398279393845 O
0.3962838792941761 0.1427237072335672 0.25356017206061965 O
0.3776705290817866 0.5986019399491637 0.22093141086737367 O
0.3776705290817885 0.1567401182144225 0.779068589132629 O
0.3449753664025847 0.5972496380665464 0.7477257283360254 O
0.8495239097305117 0.5972496380665555 0.2522742716639735 O
