System
1.0
4.949489620728688 0.0023990679820732 2.8477932187070816
1.6529817057172895 4.622171721050834 2.850825156716852
0.0076583245026703 0.006779557892489 5.713397222572665
Mg Te Pb O 
1 1 2 6 
direct
0.9949418147840102 0.0001832136621356001 0.0025378594964059306 Mg
0.49499930562183003 0.49998951956476073 0.5026030835694447 Te
0.7441289714618062 0.7539060558316791 0.7511812204158184 Pb
0.2455482107415488 0.24712085487362112 0.2536668310231047 Pb
0.21381422268478353 0.7441749132012783 0.7403883285126479 O
0.29527894000377297 0.7451068377338536 0.2203387894843487 O
0.7346714727330531 0.7423121375844958 0.3027599071579459 O
0.7762604616647908 0.2554150344888387 0.265162206082417 O
0.6946983399359468 0.2544977580638189 0.784944476017214 O
0.2556582603684616 0.25729167499553124 0.7024162982406592 O
