System
1.0
0.0 5.48674150488511 -0.0021637191452664
7.922747361641161 0.0 0.0
0.0 -0.0058328480014563 -5.690123467598724
Ca Ti Sb O 
4 2 2 12 
direct
0.48432211146136445 0.75 0.4366624629538208 Ca
0.5156778885386357 0.25 0.5633375370461792 Ca
0.012296581781874198 0.75 0.950884229588868 Ca
0.9877034182181255 0.25 0.0491157704111318 Ca
0.49999999999999994 0.5 7.561512963641095e-21 Ti
0.49999999999999994 0.0 7.561512963641095e-21 Ti
7.229051740695226e-20 0.5 0.49999999999999994 Sb
7.229051740695226e-20 0.0 0.49999999999999994 Sb
0.313167127166639 0.5523841852595626 0.7085418638532841 O
0.5943873096134691 0.75 0.0323122784024713 O
0.6868328728333607 0.0523841852595625 0.291458136146716 O
0.099936659286745 0.25 0.46621046351698 O
0.20665693277160987 0.9474922427892202 0.1916133576180011 O
0.79334306722839 0.0525077572107798 0.808386642381999 O
0.20665693277160987 0.5525077572107798 0.1916133576180011 O
0.313167127166639 0.9476158147404374 0.7085418638532841 O
0.9000633407132548 0.75 0.5337895364830197 O
0.6868328728333607 0.4476158147404376 0.291458136146716 O
0.79334306722839 0.4474922427892201 0.808386642381999 O
0.405612690386531 0.25 0.9676877215975286 O
