System
1.0
3.711079955391819 5.786280458241648 0.0
-3.711079955391819 5.786280458241648 0.0
0.0 -0.0 3.8912921235786193
P H N O 
2 12 2 4 
direct
0.25 0.25 0.06584651119428128 P
0.7500000000000001 0.7500000000000001 0.9341534888057179 P
0.7802743690930248 0.11524218563179732 0.3455812963664312 H
0.8847578143682029 0.2197256309069757 0.6544187036335686 H
0.6152421856317972 0.28027436909302444 0.6544187036335686 H
0.7197256309069753 0.3847578143682027 0.3455812963664312 H
0.4003952612021244 0.09960473879787567 0.29129808946125546 H
0.9003952612021245 0.5996047387978757 0.7087019105387441 H
0.09960473879787567 0.4003952612021244 0.29129808946125546 H
0.28027436909302444 0.6152421856317972 0.6544187036335686 H
0.3847578143682028 0.7197256309069754 0.3455812963664312 H
0.2197256309069757 0.8847578143682029 0.6544187036335686 H
0.11524218563179732 0.7802743690930248 0.3455812963664312 H
0.5996047387978757 0.9003952612021245 0.7087019105387441 H
0.25000000000000006 0.75 0.49999999999999994 N
0.7500000000000001 0.24999999999999997 0.49999999999999994 N
0.3635055250421924 0.36350552504219247 0.8679599814293619 O
0.1364944749578076 0.1364944749578076 0.8679599814293619 O
0.8635055250421922 0.8635055250421922 0.1320400185706376 O
0.636494474957808 0.6364944749578079 0.1320400185706376 O
