System
1.0
6.248269482881679 5.4252069229111015 0.3542366852063712
-6.248269482881679 5.4252069229111015 -0.3542366852063712
-2.2942675279145783 0.0 4.700203742768651
Na Co O 
8 8 12 
direct
0.1769495494255445 0.011370030225172603 0.5506123289956956 Na
0.9886299697748275 0.8230504505744558 0.050612328995695705 Na
0.288061725915661 0.288061725915661 0.75 Na
0.5747439910305994 0.5747439910305994 0.75 Na
0.4252560089694007 0.42525600896940063 0.24999999999999997 Na
0.7119382740843387 0.7119382740843386 0.24999999999999997 Na
0.011370030225172611 0.17694954942554453 0.9493876710043042 Na
0.8230504505744558 0.9886299697748276 0.4493876710043043 Na
0.7891518421849587 0.3414179112296046 0.2913262283685089 Co
0.4703170541043589 0.07354320521534487 0.25093561697479 Co
0.926456794784655 0.5296829458956408 0.7509356169747903 Co
0.6585820887703951 0.210848157815041 0.7913262283685093 Co
0.3414179112296045 0.7891518421849586 0.2086737716314909 Co
0.5296829458956409 0.9264567947846549 0.7490643830252096 Co
0.21084815781504102 0.6585820887703951 0.7086737716314906 Co
0.0735432052153449 0.4703170541043589 0.24906438302520986 Co
0.8515262142270058 0.5701601887331388 0.05819510834511929 O
0.43320266570538957 0.7141412543725356 0.9453671469431753 O
0.14847378577299378 0.4298398112668613 0.9418048916548806 O
0.7655098813643673 -0.0002839759607673662 0.941792571406705 O
0.2858587456274645 0.5667973342946103 0.4453671469431751 O
0.5701601887331387 0.8515262142270057 0.44180489165488046 O
0.0002839759607670975 0.23449011863563227 0.4417925714067053 O
-0.0002839759607675253 0.7655098813643673 0.5582074285932949 O
0.4298398112668613 0.1484737857729938 0.5581951083451193 O
0.7141412543725357 0.43320266570538957 0.5546328530568246 O
0.2344901186356323 0.0002839759607670885 0.05820742859329469 O
0.5667973342946103 0.2858587456274646 0.054632853056824804 O
