System
1.0
3.635834791770601 -0.0 0.0
-0.0 5.507120192026625 0.0
0.0 0.0 8.46758637068462
Li Ca N 
4 4 4 
direct
0.25 0.5747875174518804 0.0464763626008053 Li
0.75 0.4252124825481196 0.9535236373991945 Li
0.75 0.0747875174518805 0.4535236373991947 Li
0.25 0.9252124825481196 0.5464763626008055 Li
0.25 0.47418394224863697 0.656472976601636 Ca
0.75 0.9741839422486367 0.843527023398364 Ca
0.25 0.0258160577513632 0.1564729766016358 Ca
0.75 0.5258160577513633 0.3435270233983643 Ca
0.75 0.7384860946363838 0.0918245071753837 N
0.75 0.7615139053636161 0.5918245071753839 N
0.25 0.2615139053636162 0.9081754928246162 N
0.25 0.2384860946363839 0.40817549282461635 N
