System
1.0
4.042186307423133 -0.0026376146252572 0.0284748118801107
0.0282569830155327 4.042088133925379 0.0284748128011739
-0.0026573527640121 -0.002637613286857 4.042285225534357
La W N 
1 1 3 
direct
0.9510889261226617 0.9510889261232999 0.9510889261236793 La
0.4494758348140154 0.44947583481374503 0.4494758348135843 W
0.4051449273371328 0.9141353843889436 0.4051449273369347 N
0.9141353843890393 0.4051449273369885 0.40514492733691754 N
0.4051449273371479 0.4051449273370206 0.9141353843888814 N
