System
1.0
3.1058143718802826 1.7931427636587596 1.8977043262197941
-3.1058143718802826 1.7931427636587596 1.8977043262197941
0.0 -3.586285527317519 1.8977043262197941
C Br N 
1 1 1 
direct
0.3305029113074244 0.3305029113074243 0.3305020229490526 C
0.014184952416160997 0.014184952416160999 0.014182355430352397 Br
0.5353183492785192 0.5353183492785192 0.5353169457118695 N
