System
1.0
0.0 4.8825526050114085 0.0015258822014055
4.936910762966638 0.0 0.0
0.0 -1.5170855985738319 -4.6815819113394115
Ir N 
4 8 
direct
0.2333957445728257 0.4997957912853355 0.7207918057362503 Ir
0.7666042554271745 0.9997957912853354 0.7792081942637498 Ir
0.7666042554271745 0.5002042087146646 0.2792081942637498 Ir
0.23339574457282566 0.00020420871466459998 0.22079180573625024 Ir
0.3246975334003774 0.9136837061641752 0.659060132741066 N
0.6753024665996227 0.4136837061641754 0.8409398672589341 N
0.6753024665996226 0.0863162938358246 0.340939867258934 N
0.3246975334003774 0.5863162938358247 0.159060132741066 N
0.1857889693736937 0.4026763178700072 0.2994083216929191 N
0.8142110306263063 0.9026763178700069 0.20059167830708094 N
0.8142110306263063 0.597323682129993 0.7005916783070812 N
0.18578896937369374 0.0973236821299928 0.799408321692919 N
