System
1.0
3.076960714075363 -0.0073396133871016 4.693210772820913
1.395854536660095 2.7421398976662865 4.693210772820913
-0.0120040697075325 -0.0073396130643377 5.611930408196149
Hf Zr N 
1 1 2 
direct
0.0 0.0 0.0 Hf
0.5 0.49999999999999994 0.5 Zr
0.2538107723637685 0.2538107723637685 0.2538107723627766 N
0.7461892276362316 0.7461892276362316 0.7461892276372237 N
