System
1.0
5.745786991985256 0.0001846987358572 0.0021329728504418
-2.872732649252114 4.975777737826609 6.26642662856e-05
-0.0011232657993388 -0.0005876392342395 5.003889630896752
Ti H N F 
1 8 2 6 
direct
-1.5875974462e-06 -2.281836977e-07 -2.167711327e-07 Ti
0.5684585311938636 0.13712464867469598 0.7470465595994307 H
0.5684450466769748 0.43132496460596353 0.7470389610194934 H
0.3327191950187019 0.6663603267049797 0.5269878643710303 H
0.86264320400872 0.4313256666866973 0.7477480359774795 H
0.4315518414166589 0.5686731652252525 0.25296164605776833 H
0.4315447842633631 0.8628772810740208 0.2529549530228368 H
0.1373562205670953 0.5686776835444782 0.252252461827404 H
0.667281200804866 0.3336416892962226 0.4730140451216445 H
0.3333000983188253 0.6666487387227757 0.320423398266763 N
0.6666995695040118 0.33335241737653626 0.6795767708569682 N
0.15786390006156004 0.3156035579501724 0.7875851572565015 F
0.8421331941490955 0.15773629243147647 0.21240980872388227 F
0.8421366401327902 0.6843979749421026 0.2124154102547845 F
0.3153568751827822 0.15767298488619846 0.2125898488821364 F
0.684644243433827 0.8423294233883923 0.7874119822017617 F
0.15786604286431813 0.8422644126737271 0.7875913133312482 F
