System
1.0
4.201105040543908 -1.0023041e-09 -1.9093473767101954
-0.8677730471833717 4.1105052681897645 -1.9093473763558262
-0.173626225472557 -0.2141074099274813 5.194457840221446
Mg Si N 
2 2 4 
direct
0.25 0.7500000000000001 0.49999999999999994 Mg
0.0 0.0 0.0 Mg
0.5 0.49999999999999994 -6.417780642247782e-17 Si
0.7499999999999999 0.25 0.49999999999999994 Si
0.8137679375887705 0.8750000000000486 0.24999999999999933 N
0.6249999999999498 0.1862320624112263 0.7499999999999979 N
0.43623206241122947 0.3749999999999513 0.25000000000000056 N
0.1250000000000501 0.5637679375887737 0.7500000000000021 N
