System
1.0
9.41476677533089 0.0080657966096989 0.0137983087720729
0.0041870309175851 5.300650027974447 -0.0490433014703431
0.0041870308951809 -2.643470311877496 4.594709979582339
Si P N 
4 4 12 
direct
0.7508757645718419 0.3268377265658975 0.006204765984747999 Si
0.2508757645718413 0.006204765984765371 0.3268377265659193 Si
0.0026177337928027997 0.9975573556630061 0.6807554077490904 Si
0.5026177337928018 0.6807554077491133 0.9975573556630251 Si
0.7487511848771912 0.9893085318486424 0.3267775556146223 P
0.49729083451437045 0.004598748404133486 0.6623772269498014 P
0.2487511848771923 0.32677755561461524 0.9893085318486337 P
0.997290834514369 0.6623772269498094 0.0045987484041446 P
0.9666838498617703 0.7505114495747252 0.7737723872449183 N
0.9216341306400734 0.8986343090407246 0.3389590126700401 N
0.1778689544245502 0.0945535120078923 0.6653828405798782 N
0.6778689544245496 0.665382840579876 0.094553512007889 N
0.671897176630766 0.08510884709238384 0.6567459776063688 N
0.46668384986177 0.7737723872448716 0.7505114495747166 N
0.4283190589486306 0.9221234233770905 0.3409935853110642 N
0.4216341306400754 0.33895901267003714 0.8986343090407259 N
0.2177613117379916 0.2502842712919493 0.22851606542298683 N
0.17189717663076529 0.6567459776063791 0.08510884709240421 N
0.7177613117379926 0.2285160654230328 0.2502842712919543 N
0.9283190589486316 0.3409935853110463 0.9221234233770625 N
