System
1.0
4.9849884137669225 0.0474103661960753 -0.0002355705179045
-0.0221995424900473 10.009237283386929 -0.0001674081231382
0.0005257557385335 9.81778717207e-05 6.050121023751194
Co Sn P O 
1 3 4 16 
direct
0.1055393232370042 0.7230495583016852 0.7500115324700588 Co
0.40587034548340145 0.21706602237356223 0.7499821149357929 Sn
0.5993627358270268 0.7832346227588787 0.2500022861106371 Sn
0.9033472548961489 0.28830593879446664 0.24994289618261162 Sn
0.16803117411552726 0.5996852718862838 0.250023130771569 P
0.3835886921808857 0.07202728868505101 0.2500002007727722 P
0.6314014022930668 0.9119375396358672 0.7499995516753444 P
0.8151409682674058 0.4173081744575061 0.7499812400150437 P
0.6389836923226728 0.35584955154768727 0.5558082943735279 O
0.8596240184075917 0.6253906340983304 0.2499964719818668 O
0.6854704648334093 0.0796082570284161 0.25001640130799 O
0.7822968587486117 0.8436789142539862 0.9519106402241385 O
0.782289905906542 0.8436782005713634 0.5480807674917398 O
0.6911185945908545 0.06546384509880301 0.749997736168112 O
0.29709383368196274 0.9238984299326494 0.2500097583727854 O
0.0947696100786577 0.3491142035239416 0.7500493366655068 O
0.24891811429337607 0.1449111423444373 0.0455609330110736 O
0.3322738666153279 0.8889967382138495 0.7500153482849157 O
0.6388772139439014 0.3558838842124963 0.9441307707579688 O
0.3083898543868867 0.6734436532297283 0.4511923495629764 O
0.30841428573594626 0.6734222142266537 0.048833660034404806 O
0.22606048208956336 0.4525463219864077 0.2500691300933168 O
0.2488782135040963 0.14492837737895312 0.4544217087459775 O
0.8442600945601351 0.5665732154590005 0.7499637399898702 O
