System
1.0
4.8754128688422735 -0.0236422260076612 4.2649358320707025
1.1250142494645021 3.0915977646398236 -9.54263388e-08
0.0787229727519645 -0.0286468277345876 8.718592962837452
Fe Se N 
4 3 2 
direct
0.3907945875534786 0.8046027062232392 0.6354240208313765 Fe
0.6092054124465215 0.19539729377676052 0.3645759791686234 Fe
0.552073102332198 0.7239634488338724 0.1517181450252897 Fe
0.447926897667802 0.27603655116612746 0.8482818549747101 Fe
0.0 0.0 0.0 Se
0.770125678511166 0.6149371557444401 0.7858194813949871 Se
0.2298743214888342 0.3850628442555602 0.21418051860501305 Se
0.434543901356025 0.7827275443219694 0.4068621775854092 N
0.5654560986439746 0.217272455678031 0.5931378224145905 N
