System
1.0
4.077281628664929 1.02e-14 1.0997428235772715
2.038640852149779 7.93416940600311 0.5498712715813806
-0.0275582913201668 1.452178517e-07 8.2102802836487
Fe Hg C S N 
1 1 4 4 4 
direct
0.7500000000000001 0.49999999999999994 0.49999999999999994 Fe
0.0 0.0 0.0 Hg
0.2092018307242015 0.19158376562727417 0.6406587910306675 C
0.15013937831119573 0.6406587910108879 0.8084162343520189 C
0.5992144035588763 0.35934120898911165 0.19158376560892304 C
0.041444387405725924 0.8084162343727254 0.35934120900838923 C
0.4403494147208615 0.024903498453225696 0.7104985404659532 S
0.8491520449394626 0.7104985404275943 0.9750965015073101 S
0.5347470866479581 0.289501459572406 0.024903498418222498 S
0.17575145369171694 0.9750965015467741 0.2895014596085138 S
0.0437379300048154 0.3114444612709355 0.5876336248053996 N
0.3686284452181691 0.5876336248096801 0.6885555387320758 N
0.6448176087128468 0.4123663751903205 0.3114444612735923 N
0.9428170160641671 0.6885555387290648 0.41236637518893354 N
