System
1.0
7.707745222371347 -0.0289762599840957 -2.3776618475295446
-4.20539656444086 6.459474656632143 -2.37766185015448
0.0157818188584743 0.0289762542711893 8.066124566133132
Hg C N 
4 8 8 
direct
0.37499999999740946 0.3217582474337445 0.4467582474311126 Hg
0.6782417525663013 0.125000000001126 0.05324175257039799 Hg
0.07175824743369895 0.6249999999988728 0.946758247429602 Hg
0.8750000000025913 0.9282417525662561 0.5532417525688874 Hg
0.2131934906047294 0.36015238280855366 0.2282600077367741 C
0.7349334828707886 0.3818923750732537 0.2717399922666624 C
0.6181076249309958 0.889847617190738 0.35304110780248754 C
0.11015238280905738 0.4631934906053803 0.7282600077345921 C
0.1318923750751238 0.9849334828700727 0.7717399922644801 C
0.6398476171923244 0.8681076249316186 0.8530411078038542 C
0.015066517127830222 0.7868065093897477 0.14695889219489175 C
0.5368065093891498 0.2650665171306349 0.6469588921962592 C
-0.002525554832671354 0.888916940120847 0.26760182745554173 N
0.6213151126608497 0.7298726177104937 0.732398172541205 N
0.1286848873328834 0.3610830598737448 0.6085575050369543 N
0.638916940123927 0.2474744451736871 0.7676018274592236 N
0.2701273823022989 0.0025255548394778004 0.8914424949661846 N
0.7525255548389383 0.5201273822949142 0.39144249496629874 N
0.11108305986952358 0.37868488732918015 0.1085575050370689 N
0.4798726177042511 0.8713151126576545 0.23239817253752285 N
