System
1.0
0.0 6.188251470316039 0.0117552983895076
5.865837231367525 0.0 0.0
0.0 -1.9618968080506434 -6.620717122510278
Sr Li Re N 
4 2 2 8 
direct
0.2615825289569769 0.25 0.9427134341204906 Sr
0.7384174710430228 0.7500000000000001 0.057286565879509706 Sr
0.783174720985195 0.7500000000000001 0.5691484269213118 Sr
0.21682527901480553 0.25 0.4308515730786884 Sr
0.30716208332233175 0.7500000000000001 0.6891066526913301 Li
0.6928379166776683 0.25 0.31089334730867 Li
0.7166932435454095 0.25 0.7981122160511127 Re
0.2833067564545905 0.7500000000000001 0.20188778394888754 Re
0.4726738424872629 0.5037996717904802 0.2522740282739973 N
0.5273261575127376 0.0037996717904801 0.747725971726002 N
0.5273261575127376 0.4962003282095198 0.747725971726002 N
0.4726738424872629 0.9962003282095198 0.2522740282739973 N
0.09976060725897042 0.7500000000000001 0.37361251121048644 N
0.9002393927410294 0.25 0.6263874887895133 N
0.11679534534708522 0.7500000000000001 0.9340988933618348 N
0.8832046546529148 0.25 0.0659011066381656 N
