System
1.0
3.7390309826213715 0.2387694114296066 -0.2727164197877694
-0.8121449181129421 10.488747938480076 -4.022251541389788
0.1314322729074288 -0.2459654609846036 11.02379108985351
H C S N 
14 22 4 2 
direct
0.7708567202948509 0.8417745537330963 0.009194075052282227 H
0.7467762456275183 0.6111023723622767 0.386788741340859 H
0.3052044655020325 0.7860916337515973 0.840721442237846 H
0.3052036882715947 0.7860915926305057 0.34072125233540007 H
0.2800645390501354 0.5525236186853012 0.7176771345543413 H
0.28006375234914654 0.5525236997817754 0.21767709804786467 H
0.9554768253425281 0.003700008610438405 0.6729149205534296 H
0.7467769938028942 0.6111023685815944 0.8867887184004541 H
0.7185038354071007 0.4152212307475192 0.2807774119411712 H
0.7185035932206704 0.41522125349233896 0.780777414091446 H
0.7676439637398577 0.1710950598422301 0.19030226150058946 H
0.7676440750261903 0.1710951595215143 0.6903024474734547 H
0.7708559978563381 0.8417746540770081 0.5091940588888292 H
0.955477336510062 0.003699951298718999 0.1729148620361663 H
0.04225016211422522 0.8309123463713036 0.6835127890185739 C
0.014889278252154619 0.5616666126143819 0.04150434947770809 C
0.014889263344585391 0.561666722369474 0.5415044579412823 C
0.1373784688043895 0.05454981422919789 0.8613705202831551 C
0.8837117419003591 0.7780244966460405 0.5548765820589507 C
0.8837122530133458 0.778024442874278 0.054876611292309384 C
0.8703430678210808 0.6472777439806314 0.9859960618941989 C
0.8703422043858771 0.6472777384569509 0.4859959836450526 C
0.042250186147595827 0.8309124943888815 0.18351297034021577 C
0.1373790424965385 0.0545497871544913 0.3613704992910327 C
0.16782687917943231 0.6155509096038074 0.6707510080233291 C
0.05502886007589021 0.18534429690185691 0.8762369862756462 C
0.18385349298314263 0.7475144929702515 0.7415820971693662 C
0.18385296720469393 0.7475145487363224 0.24158184724179405 C
0.055029048396199993 0.1853442640262652 0.3762369426876222 C
0.002604186285401501 0.4245122787278808 0.46411095506712335 C
0.0026037441828083087 0.42451215097057704 0.964110985579341 C
0.8506508912243891 0.36449660860025596 0.3370729707962076 C
0.8506507810451206 0.36449662336045097 0.8370729063984645 C
0.8785969833440822 0.23067565375310548 0.2878764850162946 C
0.8785973528711964 0.230675826817929 0.78787648918777 C
0.16782674928148134 0.615551017033398 0.17075095551610084 C
0.1814128420455701 0.3114986380121432 0.022018937474891878 S
0.18141256451157003 0.3114986726595765 0.5220189678069473 S
0.33641783879395154 0.022786941873445606 0.9862286510812932 S
0.336417392500984 0.022786933213388105 0.48622870507971644 S
0.041888862440270715 0.9655154217576287 0.23997722791099355 N
0.041888863352735804 0.9655153647801631 0.7399772179904883 N
