System
1.0
6.7794617309272525 -0.0633103833745154 -1.7493925465120401
-3.8590976501744985 6.823978072270948 -0.8409739544226689
0.0085199745808536 0.1020686614432881 9.050920531052991
Sm Se O 
4 6 18 
direct
0.022075416518258804 0.6506050600102962 0.3194443604856503 Sm
0.9779245834817413 0.3493949399897033 0.6805556395143496 Sm
0.46408214913199913 0.6832257727601257 0.12950604434319993 Sm
0.5359178508680006 0.3167742272398745 0.8704939556568005 Sm
0.6478678195645206 0.7721838571562003 0.5166575584542876 Se
0.9649189246423469 0.7756163213006769 0.95721051631911 Se
0.6244276710746421 0.16831056991156018 0.2566350291601505 Se
0.03508107535765351 0.22438367869932324 0.042789483680890014 Se
0.37557232892535786 0.8316894300884398 0.7433649708398494 Se
0.35213218043547984 0.2278161428437993 0.48334244154571304 Se
0.23960661023393384 0.3376066482013155 0.9485067297520755 O
0.13783556807854871 0.4327219545949312 0.18657118292620611 O
0.8720415385812776 0.3305920072420757 0.4090332880792857 O
0.6523742675036498 0.3389454504162718 0.1442960694616205 O
0.18192858464417005 0.7840796616982064 0.10339284552270733 O
0.2852962342596448 0.32274969041886553 0.6356534529287913 O
0.8521776475635959 0.006589832687229396 0.5993377392908297 O
0.862164431921452 0.5672780454050688 0.813428817073794 O
0.4344470186902984 0.7947339638108232 0.38461800560874726 O
0.760393389766066 0.662393351798684 0.051493270247924355 O
0.3476257324963505 0.6610545495837279 0.8557039305383798 O
0.818071415355831 0.2159203383017936 0.8966071544772932 O
0.1478223524364047 0.9934101673127708 0.4006622607091709 O
0.5655529813097014 0.20526603618917694 0.6153819943912524 O
0.7001441407458086 0.0207503026628122 0.16232220067024694 O
0.299855859254192 0.9792496973371883 0.8376777993297536 O
0.1279584614187227 0.6694079927579246 0.5909667119207139 O
0.7147037657403555 0.6772503095811344 0.36434654707120845 O
