System
1.0
2.3052431471393864 -3.9927987883098974 -0.0
2.3052431471393864 3.9927987883098974 -0.0
-0.0 0.0 5.297451010215122
Li C O 
4 2 6 
direct
0.3333330000000032 0.6666669999999968 0.0 Li
0.6666669999999968 0.3333330000000032 0.0 Li
0.3333330000000032 0.6666669999999968 0.5 Li
0.6666669999999968 0.3333330000000032 0.5 Li
0.0 0.0 0.7499999999999999 C
0.0 0.0 0.25 C
0.7178685595274893 0.7178685595274893 0.25 O
0.2821314404725107 0.2821314404725107 0.7499999999999999 O
-4.005119402384546e-13 0.2821314404729114 0.25 O
4.0047812174179727e-13 0.7178685595270888 0.7499999999999999 O
0.2821314404729114 -4.005119402384546e-13 0.25 O
0.7178685595270888 4.0047812174179727e-13 0.7499999999999999 O
