System
1.0
4.767782927222642 -7.741385e-10 -1.3532829037166896
0.0709041624879871 5.182742296174871 0.2498041358534193
-0.119912278923133 0.5539542263875159 8.65292290585174
Ta Sn O 
4 2 14 
direct
0.6100366990947402 0.8035577620523402 0.6754938086063415 Ta
0.0654571095120834 0.3035577620526222 0.6754938086065735 Ta
0.3899633009052599 0.1964422379476597 0.3245061913936583 Ta
0.9345428904879163 0.6964422379473779 0.32450619139342657 Ta
0.7699568321248864 0.25000000000001615 4.5451967576134804e-13 Sn
0.2300431678751141 0.7499999999999837 -4.5449902716477177e-13 Sn
0.6910504360122911 0.9967984313303853 0.2827800297597893 O
0.4082704062529289 0.5032015686699255 0.7172199702395092 O
0.9054553797684796 0.02784586406334809 0.8383137014884638 O
0.06714167828007311 0.47215413593632727 0.1616862985115824 O
0.6829767678990589 0.16486068658942402 0.5518894554046851 O
0.6227740491607746 0.7499999999999494 -5.568914914113391e-13 O
0.3772259508392252 0.25000000000005046 5.569091750782912e-13 O
0.5917295937470716 0.4967984313300744 0.282780029760491 O
0.3089495639877091 0.003201568669614993 0.717219970240211 O
0.8689126875055091 0.6648606865897683 0.5518894554042519 O
0.31702323210094124 0.8351393134105759 0.44811054459531496 O
0.1310873124944912 0.3351393134102314 0.4481105445957482 O
0.932858321719927 0.5278458640636733 0.8383137014884178 O
0.0945446202315203 0.9721541359366519 0.1616862985115367 O
