System
1.0
3.879225179164185 0.0033884201615944 0.0005603148912767
1.9355556687462772 4.64578628017068 0.032704308041236
1.9385719961045353 0.2605213382988327 4.857501142727779
Li Mn O F 
4 1 2 3 
direct
0.190592819156823 0.20043813407369732 0.4136690566701291 Li
0.6066546440531244 0.6016247151276116 0.1803687518604126 Li
0.41693056407847895 0.3870881248971295 0.7743598355340647 Li
0.8011761325164792 0.7712453820125947 0.6217051076210345 Li
0.9860057690361318 0.03028814156608691 0.9930080567492583 Mn
0.4965056857830192 0.9967569666375278 0.005545603735100501 O
0.9014382066873253 0.3802608542999781 0.812161109108095 O
0.6873684642466028 0.21391197212551089 0.4066444754956799 F
0.07415751486808192 0.6322577349949997 0.21473323213361858 F
0.30112619957392733 0.7950669742648537 0.5979757710926049 F
