System
1.0
4.309159771090582 0.0 0.0
0.0 4.309159771090582 0.0
-0.0 -0.0 3.5525176249526593
Ba C N 
1 1 2 
direct
0.0 0.0 0.5000005410104437 Ba
0.5000003191837905 0.5000003191837905 0.5000005410104437 C
0.5000003191837905 0.0 0.0 N
0.0 0.5000003191837905 0.0 N
