System
1.0
3.0354773739755125 -5.257601686013205 -0.0
3.0354773739755125 5.257601686013205 0.0
-0.0 -0.0 4.733562839602289
Sn H N F 
1 8 2 6 
direct
0.0 0.0 0.0 Sn
0.7586422964545365 0.5172845929442835 0.6155630493069582 H
0.7586422964897478 0.24135770351025262 0.6155630493069582 H
0.5172845929442836 0.7586422964545366 0.3844369506930419 H
0.482715407055716 0.24135770354546343 0.6155630493069582 H
0.24135770354546343 0.482715407055716 0.3844369506930419 H
0.6666669999999968 0.3333330000000032 0.9117173538626814 H
0.3333330000000032 0.6666669999999968 0.0882826461373184 H
0.24135770351025262 0.7586422964897478 0.3844369506930419 H
0.3333330000000032 0.6666669999999968 0.306681770757024 N
0.6666669999999968 0.3333330000000032 0.6933182292429756 N
0.158193105843601 0.3163872117550423 0.7637380436715835 F
0.8418068941563988 0.6836127882449581 0.2362619563284168 F
0.8418068940885635 0.15819310591143695 0.2362619563284168 F
0.3163872117550423 0.158193105843601 0.2362619563284168 F
0.15819310591143693 0.8418068940885632 0.7637380436715835 F
0.6836127882449579 0.8418068941563988 0.7637380436715835 F
