System
1.0
-4.114456254512785 4.114456247559523 1.9895197421690642
4.114456254512785 -4.114456247559523 1.9895197421690642
4.114456247559524 4.114456254512782 -1.9895197421690642
W N Cl 
1 1 4 
direct
0.0003699089358720001 0.000369908935872 3.4453239798418036e-38 W
0.4452055153505505 0.4452055153505505 -1.8423821929399525e-34 N
0.19913267730531378 0.002936577015772793 0.3473074436989457 Cl
0.851825110062328 0.19913309402400536 0.19619610027677253 Cl
0.0029365770157727795 0.6556285930668632 0.8038033594604949 Cl
0.6556290097855547 0.8518251100623279 0.6526920160383223 Cl
