System
1.0
3.468583515866005 0.0 -0.6721257143183567
0.0 2.556680171391782 0.0
-1.1409133095727422 0.0 3.3449070095186437
Li N 
2 1 
direct
-0.20016570146606388 0.0 -0.19970602416975397 Li
0.13351028377379578 0.0 0.46638347020842613 Li
0.466655016791358 0.0 0.133322560914527 N
