System
1.0
7.907840080153017 0.0 0.0
0.0 9.899342487401125 -3.393660148364593
0.0 -0.1304887158459205 12.115938058064527
Nb Se S N Cl F 
4 8 4 8 4 24 
direct
0.8213495845670354 0.9115910915748174 0.6834380546240797 Nb
0.1786504154329643 0.08840890842518229 0.3165619453759199 Nb
0.3213495845670353 0.5884089084251827 0.8165619453759203 Nb
0.6786504154329646 0.4115910915748178 0.1834380546240798 Nb
0.8216168821800502 0.7195308017762055 0.02335042365450829 Se
0.9170574642306429 0.3235938865042534 0.6501024877636297 Se
0.4170574642306425 0.17640611349574659 0.8498975122363703 Se
0.3216168821800501 0.7804691982237943 0.4766495763454919 Se
0.6783831178199496 0.21953080177620568 0.5233504236545076 Se
0.0829425357693578 0.6764061134957474 0.3498975122363706 Se
0.582942535769357 0.8235938865042525 0.1501024877636296 Se
0.1783831178199498 0.2804691982237945 0.9766495763454925 Se
0.2318038360967117 -0.006845315028628801 0.9433057936088882 S
0.7318038360967117 0.506845315028628 0.5566942063911118 S
0.7681961639032882 0.006845315028629 0.0566942063911113 S
0.2681961639032878 0.4931546849713708 0.4433057936088887 S
0.8934075564784523 0.4806412658199847 0.6247507369800902 N
0.3777570393840643 0.6231203249827574 0.4952327957418378 N
0.1065924435215482 0.5193587341800165 0.3752492630199105 N
0.6065924435215476 0.9806412658199836 0.12475073698008962 N
0.1222429606159359 0.12312032498275739 -0.004767204258162903 N
0.3934075564784519 0.0193587341800155 0.8752492630199098 N
0.6222429606159366 0.3768796750172426 0.5047672042581629 N
0.8777570393840634 0.8768796750172427 0.0047672042581625215 N
0.8015747096346646 0.3619011131673935 0.8342304800765189 Cl
0.6984252903653353 0.8619011131673937 0.3342304800765181 Cl
0.30157470963466537 0.1380988868326065 0.665769519923481 Cl
0.19842529036532747 0.6380988868326064 0.16576951992348152 Cl
0.723540904540612 0.2799427518578431 0.2576647766278879 F
0.0904671069888302 0.6017157929190272 0.8743967607306876 F
0.1108977314946934 0.23406008850420817 0.458563030217964 F
0.4453221982520638 0.4344929627816965 0.2309936373373207 F
0.1434074227605314 0.9526914531690645 0.3956891116344148 F
0.7764590954593878 0.779942751857843 0.7576647766278878 F
0.2594313636848248 0.444008762927556 0.6748689953497636 F
0.9095328930111692 0.3982842070809728 0.1256032392693121 F
0.054677801747936294 0.9344929627816967 0.73099363733732 F
0.6434074227605304 0.5473085468309357 0.10431088836558558 F
0.610897731494693 0.26593991149579244 0.04143696978203581 F
0.2764590954593882 0.7200572481421569 0.7423352233721122 F
0.8565925772394695 0.04730854683093559 0.6043108883655856 F
0.5904671069888306 0.8982842070809728 0.6256032392693124 F
0.8891022685053069 0.7659399114957919 0.5414369697820359 F
0.2405686363151752 0.944008762927556 0.1748689953497635 F
0.3891022685053068 0.734060088504208 0.9585630302179642 F
0.7594313636848246 0.05599123707244401 0.8251310046502363 F
0.9453221982520638 0.0655070372183033 0.2690063626626796 F
0.5546778017479361 0.5655070372183032 0.76900636266268 F
0.22354090454061218 0.22005724814215644 0.24233522337211222 F
0.3565925772394688 0.45269145316906434 0.8956891116344146 F
0.40953289301116963 0.10171579291902699 0.3743967607306881 F
0.7405686363151753 0.555991237072444 0.3251310046502363 F
