System
1.0
5.039590850059187 7.1715799e-09 2.9096089311412157
1.6798632943971445 4.751372061729723 2.9096089311412165
7.424566e-09 5.2499615e-09 5.819218836574749
Fe Si O 
4 2 8 
direct
0.4999990000000026 0.4999990000000025 0.5000009999999975 Fe
0.4999990000000026 0.4999990000000025 -5.643732541679666e-17 Fe
1.742414358595868e-17 0.4999990000000025 0.5000009999999975 Fe
0.49999999999999994 0.0 0.5 Fe
0.8749990000000025 0.8750009999999975 0.8750009999999975 Si
0.12499900000000247 0.125 0.12500099999999753 Si
0.7583850416870762 0.7583860416875029 0.7583850416909079 O
0.24161495831098936 0.24161495831056742 0.7751561250693625 O
0.24161495830985938 0.7751561250670832 0.2416149583105673 O
0.7751571250662366 0.24161495830985943 0.2416139583109849 O
0.7583860416901451 0.2248428749329192 0.7583850416894327 O
0.22484387493376085 0.7583860416901451 0.7583850416890106 O
0.24161495831292357 0.2416149583125016 0.24161395830908775 O
0.7583850416890104 0.7583860416894374 0.22484287493063998 O
