System
1.0
4.840366492695594 0.063375841928115 0.8773901360236754
1.724635925804343 7.341967288816349 3.4410667704248565
-0.0002815291882299 -0.0552201875752061 10.711415406000544
Sn H C O 
1 26 14 4 
direct
0.5775159049830293 0.36543761916322187 0.1759395103077438 Sn
0.40708993692967466 0.6041679171402334 0.6241610121588599 H
0.7510769880669105 0.47748783925755983 0.3467615455118822 H
0.569003947341069 0.2991702782856571 0.44067636073311334 H
0.7857776213276686 0.2403145123863306 0.9751364246411678 H
0.4327838790879158 0.20403548831330887 0.03339134677547259 H
0.5373471635156262 0.6987796575340633 0.7148409304015634 H
0.36627208604956984 0.5271766980711509 0.3550960397960304 H
0.527938027014353 0.9851402940904832 0.5047501731195336 H
0.19115773654470666 0.9368791099452274 0.5630655408023778 H
0.2710586292093728 0.7979717676300802 0.37466826662600133 H
0.5612872974882129 0.905565030704246 0.30916864135012834 H
0.8234671844734854 0.28780773623065925 0.5822787779004446 H
0.47689941092092764 0.4267998266799768 0.9220523608539164 H
0.2124594639729093 0.3971593324112864 0.6266489737283994 H
0.23462236601772918 0.0703601137631393 0.7087768353752834 H
0.503265988127249 0.0403141530586779 0.8970826445185288 H
0.5307747670496015 0.8207130847196162 0.9027176625494705 H
0.5908844089339801 0.7984450579754916 0.12752226985385562 H
0.06873852579993239 0.08434988570860699 0.864446357062034 H
0.8717505581152727 0.91337374123692 0.06863716465516356 H
0.7867236938648732 0.9674010865658678 0.6933219946987422 H
0.6337819755234966 0.30402504505625605 0.7345378079399234 H
0.9688410104767998 0.7211045964910405 0.5538443533445662 H
0.852258558755426 0.6201474396853278 0.4635751338686499 H
0.9977712208080836 0.4391767100874787 0.7661076388658129 H
0.0462827723133784 0.8077500819229595 0.8061385871765397 H
0.7706293221664509 0.8239180575843704 0.05034799920826114 C
-0.010520024326118718 0.4336638176301452 0.6654721509763061 C
0.6539274509429127 0.9093109670955108 0.907199733074012 C
0.8837741726322286 0.9374538767579325 0.7882176516674824 C
0.025184810344719002 0.09135252385954258 0.7647865664945779 C
0.8453828801715545 0.6236148273419784 0.566044853331946 C
0.8491755828585885 0.28169726959371055 0.6841936172469532 C
0.9839948892452957 0.6435397291548373 0.07076273834208541 C
0.4000803449556669 0.8901837734870991 0.5157914377782264 C
0.538633139000178 0.6971739521186805 0.6120399370877637 C
0.15135106379914506 0.09000536787542218 0.3021724728941905 C
0.5660776134857399 0.42680645803173023 0.3516467323609202 C
0.567846875120015 0.2996901987423724 0.004827796738127503 C
0.3564821421682193 0.9085023079997943 0.37054432838188245 C
0.9155636930787415 0.0925952046037788 0.2655346211498755 O
0.9105161197545901 0.5174015412736465 0.05485299727740445 O
0.23433124536854125 0.6280169943628026 0.09867769269529252 O
0.21468955652224334 0.23480802837179038 0.2902543186794773 O
