System
1.0
4.632237352329314 -0.0 0.0
0.0 4.632237352329314 0.0
0.0 0.0 5.960878316717266
Fe O F 
4 4 4 
direct
0.0307208856742453 0.0307208856742453 0.0 Fe
0.46927911432575475 0.5307208856742456 0.25 Fe
0.9692791143257545 0.9692791143257545 0.5 Fe
0.5307208856742456 0.46927911432575475 0.75 Fe
0.1851188341052626 0.8148811658947377 0.25 O
0.6851188341052623 0.6851188341052623 0.5 O
0.8148811658947377 0.1851188341052626 0.75 O
0.3148811658947376 0.3148811658947376 0.0 O
0.7789348324680644 0.2210651675319358 0.25 F
0.2789348324680642 0.2789348324680642 0.5 F
0.2210651675319358 0.7789348324680644 0.75 F
0.7210651675319356 0.7210651675319356 0.0 F
