System
1.0
4.888964900952492 -0.1060155037579353 0.4271616479550311
0.7989790329650693 4.733613796939519 1.428725647321699
0.0758733684514439 0.1344403242486125 8.579455612189564
Li Mn Co O 
7 4 1 12 
direct
0.24713079829707324 0.4133909933017046 0.08055856597536772 Li
0.7526476508633577 0.5818102364221748 0.9048177505026106 Li
0.2440346130080363 0.7501650321475194 0.7441431827562996 Li
0.24294940636391527 0.0883245497467553 0.4254688859057265 Li
0.7517949900987835 0.2500349426769138 0.25317016176375234 Li
0.7604044779040993 0.9201851600608629 0.5890931353930728 Li
0.0003561073522943138 0.3333651209439418 0.6673132783515293 Li
-5.331261759259891e-05 0.005353330871373006 0.9920879808701895 Mn
0.5002746615430644 0.49529903055476204 0.5068446452807565 Mn
1.2080017944430617e-05 0.6650648521554056 0.33690488801205026 Mn
0.49999074642562336 0.8308492979987127 0.16874885423442357 Mn
0.49995900090090906 0.16663678247157748 0.8316282436220147 Co
0.12875237735840814 0.022315670355835 0.20213497024587138 O
0.6301654302474258 0.1834495627192029 0.0383218565326025 O
0.13276063213713635 0.3439495564907568 0.8816592048310902 O
0.1379635658657255 0.7032917553558364 0.5271392873974776 O
0.626207447372858 0.8560361750760979 0.371224781369421 O
0.6074171796018163 0.5234797651313277 0.7045671598219946 O
0.3697330890428169 0.8117011385897582 0.964791955752609 O
0.8680191237927914 0.9634918197710972 0.8053203512274674 O
0.39262982176387934 0.1455739847120376 0.6273541864894714 O
0.37394217566571586 0.4765617200794168 0.2963268614072033 O
0.870721200801262 0.6464037825913106 0.12880856123924478 O
0.8621867361926595 0.32326673977564596 0.45157025101775433 O
