System
1.0
3.1739111824778403 -0.3433445526802959 0.9315619457577873
0.6012445628448592 9.200028160641528 1.4058141382749811
0.6185735973229197 0.8920427169159321 8.799118206326927
Mg Sn O 
4 4 8 
direct
0.40167991780933965 0.0063863016653716 0.3509561540890691 Mg
0.5943314671456872 0.9735304345745943 0.6772578172455723 Mg
0.20342172314848567 0.77865350861115 0.12284413218704997 Mg
0.7926331789346834 0.20127108995723317 0.9053551035638316 Mg
0.35042608026777705 0.29123618918874766 0.5796702863268198 Sn
0.026293702347517007 0.3147068104921823 0.20530482040162917 Sn
0.9697278281865884 0.6652022925370606 0.8228920422102631 Sn
0.6456363289323876 0.688683824431105 0.44853033570256806 Sn
0.21185271440842318 0.8436352411915163 0.5879128092494691 O
0.38389717090400594 0.30538261730662064 0.8108739785988969 O
0.6121569915587179 0.6745410057644172 0.21732702698088197 O
0.7841652105638096 0.13627884250576763 0.4402913864111926 O
0.026003615745324796 0.08082841258918462 0.7414639176464972 O
0.5780555113006554 0.18630180340641803 0.14420736901820289 O
0.9700295741884191 0.8990918640128791 0.28674229933410944 O
0.41796598455818146 0.7936057617657619 0.8839945210339498 O
