System
1.0
5.6146763003609825 0.0 0.0
0.0 7.117716003642723 -2.1002740660016337
-0.0 0.0519081007612173 7.420938771773111
Ca Bi As O 
4 2 2 12 
direct
0.7633866189215699 0.698222886117855 0.9079183085018947 Ca
0.7633866189215699 0.09208169149773432 0.3017771138835875 Ca
0.2633866189215699 0.9079183085022658 0.6982228861164121 Ca
0.2633866189215699 0.3017771138821449 0.0920816914981054 Ca
0.2516962748139223 0.4073452160754324 0.592654783922274 Bi
0.7516962748139222 0.5926547839245678 0.40734521607772606 Bi
0.8036544755658546 0.18228081022749731 0.81771918977234 As
0.3036544755658545 0.8177191897725028 0.1822808102276601 As
0.4239096432659228 0.5978143180822669 0.08689955561934752 O
0.4233480816533486 0.9527685872480078 0.04723141275266043 O
0.0116078631860674 0.6583338608726197 0.6508012462455768 O
0.4974919172197447 0.18882588710342954 0.8111741128975516 O
0.0116078631860674 0.349198753754035 0.3416661391282059 O
0.9239096432659231 0.4021856819177327 0.9131004443806523 O
0.5116078631860675 0.34166613912738053 0.3491987537544237 O
0.4239096432659228 0.9131004443806888 0.4021856819167712 O
0.9233480816533478 0.0472314127519919 0.9527685872473395 O
0.5116078631860675 0.6508012462459651 0.6583338608717944 O
0.9974919172197448 0.8111741128965707 0.18882588710244852 O
0.9239096432659231 0.0868995556193115 0.5978143180832289 O
