System
1.0
5.304764957407214 -0.0046056713110081 0.0027899619091473
-2.643068158073396 4.703320225559517 -0.0057949051294423
-2.5293890905828036 -1.5279853611528404 4.987131939575194
Li Os O 
7 1 6 
direct
0.3837932433545512 0.8570818090894303 0.6221105990162679 Li
0.7426947893144422 0.3590086575737719 0.0452891014269682 Li
0.8513467269734928 0.7611162778851914 0.3457869670987338 Li
0.14999257130185403 0.2566994638979175 0.6266703637886882 Li
0.29233047229562353 0.6339779432218744 0.9969633362541164 Li
0.5947434456357853 0.10399441946215342 0.3595401713903135 Li
0.7001643125767736 0.5069684953134385 0.6172878359837174 Li
0.003643240284716999 0.0100271950279994 0.0014046086114073001 Os
0.1522847138062837 0.7800328841194624 0.229751290366771 O
0.545009589151219 0.6321958719974121 0.79496152287008 O
0.11628611958336622 0.9011813562553076 0.7397417603513364 O
0.8550854077548358 0.0902770202640163 0.2386632250583344 O
0.4709726617339278 0.373434714689717 0.223857273816462 O
0.8396527062331365 0.23500589120232293 0.7589719439668015 O
