System
1.0
5.4421165011798305 -0.0764571357374637 2.128798671662983
0.1069968982846197 6.253100178762254 2.6443873652630456
0.154999041640834 -0.2375524865637074 7.722739603656198
H C S N O 
10 10 2 2 2 
direct
0.8806206588114366 0.171395991051962 0.010329724222514497 H
0.880623100609306 0.671396176537641 0.5103305913893417 H
0.707853745545608 0.7288813044709734 0.8482816339480623 H
0.7078531649336586 0.22888122913674594 0.34828129633442517 H
0.42055246266279706 0.9647874578784937 0.060288959042130975 H
0.4205508443308153 0.46478774837109527 0.5602878398765208 H
0.013151370117576888 0.429325036072368 0.8753739989787666 H
0.01315197591459509 0.9293255833022347 0.375373635975251 H
0.7249849484595775 0.2574885731035469 0.7236816841740034 H
0.7249850946033466 0.7574855245887122 0.22368409266782469 H
0.9491372846214136 0.7928679343914 0.36186258674419586 C
0.9491362142935053 0.2928682904799236 0.8618622754505908 C
0.42275520798149113 0.9899032305098406 0.5203252331516169 C
0.4227550284032473 0.4899043100514818 0.020324294994224775 C
0.15600847838200538 0.211617699672278 0.7187140407362776 C
0.5300849823877266 0.6804411076230487 0.9664112940856358 C
0.5300842287698935 0.1804407902558873 0.46641135795801036 C
0.37400347720678734 0.30651792676030887 0.5801053206161717 C
0.37400460837765764 0.8065178238521777 0.08010601441028697 C
0.1560092246657312 0.7116178442982934 0.2187142826334631 C
0.1350168859281027 0.46125276413052513 0.20940958252332406 S
0.13501698947787366 0.9612518305981006 0.7094105058659822 S
0.7406614996998302 0.3638856363396957 0.7852591627317673 N
0.7406617142723796 0.8638843143194552 0.28526097394375427 N
0.5028885184846713 0.3211772789769183 0.9570041784936236 O
0.5028892910589813 0.8211755932268995 0.4570064390522513 O
