System
1.0
5.779972496260472 4.843378687670053 0.0
-5.779972496260472 4.843378687670053 0.0
0.0 0.0 11.251870061350596
K Si H O 
8 8 8 24 
direct
0.3184876511045978 0.3184876511045978 0.5433658199811009 K
0.6815123488954027 0.6815123488954027 0.4566341800188997 K
0.1815123488954024 0.1815123488954024 0.0433658199811005 K
0.8184876511045973 0.8184876511045973 0.956634180018899 K
0.012493529476557205 0.512493529476557 0.25 K
0.48750647052344265 0.987506470523443 0.7500000000000001 K
0.987506470523443 0.4875064705234426 0.7500000000000001 K
0.512493529476557 0.012493529476557205 0.25 K
0.19898992142103042 0.80101007857897 0.5 Si
0.69898992142103 0.30101007857896983 0.0 Si
0.80101007857897 0.19898992142103042 0.5 Si
0.3010100785789698 0.69898992142103 0.0 Si
0.5155200533836248 0.5155200533836248 0.186148776372642 Si
0.0155200533836245 0.0155200533836245 0.313851223627358 Si
0.48447994661637556 0.48447994661637556 0.813851223627358 Si
0.9844799466163752 0.9844799466163752 0.6861487763726419 Si
0.5 3.0354480925138473e-18 0.0 H
3.0354480925138473e-18 0.5 0.5 H
3.0354480925138473e-18 0.5 0.0 H
0.5 3.0354480925138473e-18 0.5 H
0.3317405821655242 0.3317405821655242 0.3109299185775083 H
0.8317405821655239 0.831740582165524 0.18907008142249174 H
0.1682594178344759 0.1682594178344759 0.8109299185775082 H
0.6682594178344761 0.6682594178344762 0.6890700814224918 H
0.679058843168515 0.679058843168515 0.20030333814196538 O
0.32094115683148544 0.3209411568314854 0.7996966618580346 O
0.561764041350133 0.561764041350133 0.683054415626479 O
0.438235958649867 0.438235958649867 0.3169455843735207 O
0.9382359586498671 0.9382359586498671 0.1830544156264794 O
0.0617640413501332 0.0617640413501332 0.816945584373521 O
0.40925680475293763 0.8611029846469889 0.4649477128171385 O
0.13889701535301083 0.590743195247062 0.5350522871828617 O
0.6388970153530111 0.09074319524706227 0.9649477128171383 O
0.909256804752938 0.36110298464698937 0.0350522871828616 O
0.590743195247062 0.13889701535301083 0.5350522871828617 O
0.36110298464698937 0.909256804752938 0.0350522871828616 O
0.09074319524706233 0.6388970153530111 0.9649477128171383 O
0.5659050927857607 0.3381668405165565 0.1128754181809406 O
0.6618331594834435 0.4340949072142388 0.887124581819059 O
0.16183315948344337 0.9340949072142393 0.6128754181809409 O
0.06590509278576104 0.8381668405165565 0.3871245818190595 O
0.43409490721423893 0.6618331594834436 0.887124581819059 O
0.3381668405165565 0.5659050927857607 0.1128754181809406 O
0.8381668405165565 0.06590509278576104 0.3871245818190595 O
0.9340949072142392 0.16183315948344348 0.6128754181809409 O
0.1790588431685148 0.1790588431685148 0.2996966618580345 O
0.8611029846469889 0.40925680475293763 0.4649477128171385 O
0.820941156831485 0.820941156831485 0.7003033381419655 O
