System
1.0
4.174061777213956 -0.0031020640607532 3.518730885509268
1.6340824908010338 3.84090852724161 3.5187308871719214
-0.0046940865619616 -0.0031020611547241 5.459325332245962
Cr B O 
2 2 6 
direct
0.5 0.49999999999999994 0.5000000000000001 Cr
0.0 0.0 0.0 Cr
0.7500000000000001 0.7499999999999999 0.75 B
0.25 0.24999999999999997 0.25000000000000006 B
0.4497254090823001 0.0502745909163611 0.7500000000009764 O
0.749999999999792 0.4497254090844072 0.05027459091806526 O
0.9497254090820922 0.2500000000007682 0.5502745909190416 O
0.5502745909176997 0.9497254090836389 0.24999999999902336 O
0.2500000000002083 0.5502745909155924 0.9497254090819343 O
0.05027459091790806 0.7499999999992314 0.4497254090809582 O
