System
1.0
3.32837577414353 -5.764915350028771 -0.0
3.328375772350578 5.76491535106393 0.0
-0.0 0.0 9.31959563511113
Na Mn O 
14 2 9 
direct
0.0 0.0 0.25188095633804836 Na
0.3211089004705436 0.3607678548779701 0.9086599465553623 Na
0.6392321451221399 0.9603410455926815 0.9086599465553623 Na
0.6788910995294565 0.6392321451220299 0.0913400534446374 Na
0.9603410455926836 0.32110890047065144 0.0913400534446374 Na
0.36076785487786 0.03965895440731859 0.0913400534446374 Na
0.9322526803875498 0.6222147835563997 0.4082257044919165 Na
0.03965895440731664 0.6788910995293481 0.9086599465553623 Na
0.3777852164437508 0.31003789683124056 0.4082257044919165 Na
0.06774731961245019 0.3777852164436002 0.5917742955080835 Na
0.31003789683130045 0.9322526803876403 0.5917742955080835 Na
0.6222147835562492 0.6899621031687596 0.5917742955080835 Na
0.0 0.0 0.7481190436619515 Na
0.6899621031686994 0.0677473196123597 0.4082257044919165 Na
0.3333330000000032 0.6666669999999968 0.2629887313255201 Mn
0.6666669999999968 0.3333330000000032 0.73701126867448 Mn
0.6406362672104442 0.6954209472520696 0.3370841402426526 O
0.9452153199575295 0.6406362672100463 0.6629158597573475 O
0.6954209472529217 0.05478468004201627 0.6629158597573475 O
0.3333330000000032 0.6666669999999968 0.040895098791857494 O
0.0 0.0 0.0 O
0.6666669999999968 0.3333330000000032 0.9591049012081424 O
0.30457905274707836 0.9452153199579837 0.3370841402426526 O
0.3593637327895561 0.30457905274793035 0.6629158597573475 O
0.054784680042470585 0.3593637327899537 0.3370841402426526 O
