System
1.0
2.4832418466411585 -0.0011619847480553 3.916960737426155
1.136129333696186 2.2080979706025636 3.91696073797532
-0.001904810687739 -0.0011619843812516 4.637786172539933
B C N 
2 1 1 
direct
0.22352323990136183 0.2235232399009511 0.2235232399006563 B
0.7322374766486726 0.7322374766487739 0.732237476648847 B
0.34501345806143824 0.3450134580613133 0.3450134580612234 C
0.8477248253885218 0.8477248253889557 0.8477248253892669 N
