System
1.0
3.4368072254574242 -0.0 -0.0
-1.7184036127287121 2.976362365160817 -0.0
-0.0 0.0 11.121466521464967
Zr N Cl 
2 2 2 
direct
0.0 0.0 0.8042678638319058 Zr
0.0 0.0 0.19573195247122474 Zr
0.6666658891571657 0.3333329457037593 0.8606690924783176 N
0.3333329456877863 0.6666658913755796 0.1393307238248127 N
0.3333329456877863 0.6666658913755796 0.6369098880213214 Cl
0.6666658891571657 0.3333329457037593 0.3630899282818092 Cl
