System
1.0
-3.4791760752922385 0.0027735411551372 0.0181181342616942
-0.003971960589407 -4.189334349048832 -0.0460766036078535
0.0482136065748114 1.8466902045313867 9.031320682324393
Al C N 
6 3 2 
direct
0.13823512074232164 0.7243689157998242 0.749213303353505 Al
0.13874877640420313 0.9227336015985355 0.3942959581702772 Al
0.6382648652356345 0.4889124186036787 0.5138196302852907 Al
0.13807197059232101 0.3734980249369471 0.14361343834628834 Al
0.6381954539032798 0.24125224511183146 0.83449694057374 Al
0.6381169176715096 0.8392432077238328 0.0637914282305351 Al
0.1380997901337633 0.8985962325497628 0.18321223168264691 C
0.1382874312379501 0.297343515668998 0.5770080617359049 C
0.6382267280829786 0.7370493115648833 0.8372687455776298 C
0.6380896288536485 0.33489354953920103 0.05212332547564601 N
0.1382273171423893 0.16880197690250914 0.7159699365685374 N
