System
1.0
5.35141065479617 0.0030355119315331 -1.3944827748496162
-1.1809824312929769 6.241619536653607 -2.1700401428794622
-0.0509327323974537 0.010609087484445 8.249708052089357
Ca Co N 
6 6 10 
direct
0.8136851507873106 0.4094688197171235 0.6103365081403814 Ca
0.18631484921268918 0.5905311802828768 0.38966349185961857 Ca
0.6588644733344484 0.8694005928127705 0.8723806202632483 Ca
0.341135526665551 0.1305994071872289 0.1276193797367518 Ca
0.6594667948454118 0.6663616314072941 0.19981082652801527 Ca
0.34053320515458807 0.33363836859270546 0.8001891734719848 Ca
0.8963205926980546 0.11930320617401449 0.2887960062567457 Co
0.3136740811864315 0.0540029813640676 0.43876518222589805 Co
0.10367940730194507 0.8806967938259852 0.711203993743254 Co
0.0880350642900344 0.6793880034039678 0.02629910231034825 Co
0.9119649357099651 0.3206119965960324 0.9737008976896515 Co
0.6863259188135682 0.9459970186359319 0.5612348177741022 Co
0.23146437031578426 0.7665048943027192 0.8824597613084655 N
0.9355183967369006 0.11188450459479099 0.7772145058997882 N
0.06448160326309942 0.8881154954052088 0.22278549410021153 N
0.8227773082356996 0.6965635990228174 0.5112744252997675 N
0.17722269176430036 0.303436400977183 0.48872557470023237 N
0.7474738227898745 0.5345913399774467 0.9030098703395966 N
0.25252617721012516 0.46540866002255316 0.09699012966040328 N
0.37347904209243427 0.9493585752703101 0.6257184113099853 N
0.6265209579075658 0.05064142472968959 0.37428158869001493 N
0.7685356296842153 0.23349510569728107 0.11754023869153454 N
