System
1.0
3.7489700614493424 -4.0764533e-09 -0.5246489445257038
-0.0734215584007716 3.748251443756174 -0.5246489441775992
0.0079209283469024 0.0080777717086821 13.71338142861971
Sr Li N 
2 8 4 
direct
0.6249999999999999 0.8750000000000001 0.75 Sr
0.375 0.125 0.24999999999999997 Sr
0.7288187892990549 0.9788187892991239 0.9576365785980178 Li
0.4788177892990503 0.22881778929911917 0.4576365785980178 Li
0.052570353674410694 0.302570353674486 0.6051407073487188 Li
0.8025703536744108 0.5525703536744858 0.10514070734871848 Li
0.9474296463255891 0.6974296463255142 0.3948592926512814 Li
0.2711822107009498 0.0211822107008808 0.0423634214019822 Li
0.521181210700945 0.7711812107008762 0.5423634214019821 Li
0.19742964632558926 0.4474296463255141 0.8948592926512812 Li
0.1936279520485552 0.9436279520488433 0.8872549040967386 N
0.44362795204855515 0.6936279520488432 0.3872549040967389 N
0.8063720479514448 0.0563720479511566 0.1127450959032612 N
0.5563720479514448 0.3063720479511565 0.6127450959032613 N
