System
1.0
-4.649412865867753 -4.6494128658677525 -0.0
-4.649412865867753 -0.0 -4.649412865867753
-0.0 -4.6494128658677525 -4.649412865867753
V N Cl 
1 2 6 
direct
0.0 0.0 0.0 V
0.25 0.25 0.25 N
0.75 0.75 0.75 N
0.7568935013994162 0.243106498600584 0.24310649860058395 Cl
0.7568935013994161 0.24310649860058411 0.756893501399416 Cl
0.7568935013994161 0.7568935013994161 0.24310649860058406 Cl
0.24310649860058414 0.7568935013994161 0.756893501399416 Cl
0.243106498600584 0.7568935013994162 0.24310649860058395 Cl
0.243106498600584 0.24310649860058395 0.7568935013994162 Cl
