System
1.0
6.087096621159466 -2.81173424e-08 3.512825454744962
2.590430864217517 5.99106617118854 2.541584920748005
0.0149369576505892 -0.016331350628612 7.004453385772848
Sb S N Cl 
1 2 1 6 
direct
0.0 0.0 0.0 Sb
0.5000000000026112 0.688622214592341 0.3113777854091754 S
0.4999999999973887 0.3113777854076595 0.6886222145908246 S
0.49999999999999983 0.5 0.5000000000000001 N
0.9373122200102937 0.8152560746577103 0.8152560746685965 Cl
-7.150242669390311e-12 0.6960072776323237 0.3039927223642168 Cl
0.5678253693730376 0.1847439253157569 0.18474392532258727 Cl
7.150162323054601e-12 0.3039927223676763 0.6960072776357831 Cl
0.06268777998970605 0.18474392534229012 0.1847439253314035 Cl
0.43217463062696276 0.8152560746842431 0.8152560746774129 Cl
