System
1.0
7.737235656952266 0.0 -0.7935177545382042
0.0 5.410785835732584 0.0
-0.055156101971571 0.0 8.666690939137629
In H N F 
4 20 8 8 
direct
0.6394273212299673 0.5726305664573469 0.3546332448292125 In
0.13942732122996704 0.9273694335426531 0.8546332448292121 In
0.3605726787700329 0.4273694335426536 0.6453667551707879 In
0.8605726787700326 0.0726305664573465 0.14536675517078748 In
0.11018522647184321 0.3634366585957437 0.3376811766341229 H
0.6101852264718434 0.1365633414042564 0.8376811766341219 H
0.8898147735281566 0.6365633414042563 0.662318823365878 H
0.3898147735281566 0.8634366585957438 0.162318823365877 H
0.6915227601238698 0.2472178374079291 0.67918258672142 H
0.8084772398761302 0.7472178374079298 0.82081741327858 H
0.3084772398761302 0.7527821625920702 0.3208174132785803 H
0.06252952785395581 0.49592688880336466 0.1663413454246566 H
0.5625295278539563 0.0040731111966353 0.6663413454246558 H
0.19152276012386954 0.25278216259207087 0.1791825867214198 H
0.4374704721460441 0.9959268888033651 0.3336586545753442 H
0.6834201058920831 0.49567700631634837 0.06338127026813958 H
0.1834201058920836 0.0043229936836517 0.5633812702681396 H
0.3165798941079164 0.5043229936836524 0.9366187297318603 H
0.8165798941079169 0.9956770063163477 0.43661872973186056 H
0.5427815543225556 0.2819680879852007 0.10380512732218239 H
0.0427815543225559 0.2180319120147989 0.6038051273221829 H
0.4572184456774436 0.7180319120147983 0.8961948726778171 H
0.9572184456774443 0.7819680879852019 0.39619487267781733 H
0.9374704721460437 0.504073111196635 0.8336586545753442 H
0.0834068300999982 0.3267202959010173 0.2211502694634946 N
0.5834068300999986 0.173279704098983 0.7211502694634935 N
0.9165931699000014 0.6732797040989837 0.7788497305365065 N
0.41659316990000184 0.8267202959010164 0.2788497305365048 N
0.16101896850878214 0.1403114624099435 0.642570530177467 N
0.3389810314912175 0.6403114624099432 0.857429469822533 N
0.8389810314912176 0.8596885375900569 0.3574294698225335 N
0.6610189685087825 0.3596885375900563 0.1425705301774665 N
0.1844630749170757 0.6559720821900724 0.49801810000862407 F
0.5610035309486947 0.6941563068087085 0.5855924942810439 F
0.0610035309486947 0.8058436931912915 0.0855924942810434 F
0.4389964690513051 0.3058436931912912 0.4144075057189567 F
0.9389964690513053 0.1941563068087088 0.9144075057189561 F
0.8155369250829245 0.34402791780992803 0.5019818999913751 F
0.31553692508292447 0.1559720821900724 0.0019818999913755017 F
0.6844630749170756 0.8440279178099276 0.9980181000086248 F
