System
1.0
2.7531766187439137 0.0 0.0
-1.3765883093719569 2.910635999415776 0.0
0.0 -1e-15 7.338301886973861
Os N 
2 4 
direct
0.69239270101894 0.38478540203788 0.25 Os
0.3076072989810602 0.6152145979621203 0.75 Os
0.9947497835558009 0.9894985671115973 0.4092233784862628 N
0.0052502164441991 0.0105014328884028 0.590776621513737 N
0.0052502164441991 0.0105014328884028 0.909223378486263 N
0.9947497835558009 0.9894985671115973 0.0907766215137373 N
