System
1.0
0.0376368638041598 -0.0402208534512086 4.186732625932949
0.1488573213646799 3.547579411637054 0.7832794353855962
-3.5508878899922056 -0.0112702840512121 0.7823508692752926
B C N 
2 4 2 
direct
0.03744385847196391 0.5755052010669801 0.5755072010670544 B
0.7125561415280359 0.17449479893301967 0.1744927989329452 B
0.49035442657793477 0.48140508147856825 0.967074125075352 C
0.25964557342206535 0.2685949185214317 0.782925874924648 C
0.4903544265777001 0.967072125075569 0.4814060814788063 C
0.2596455734223 0.7829278749244308 0.2685939185211937 C
0.0656715105939208 0.08029443878648299 0.08029643878639212 N
0.6843284894060793 0.6697055612135172 0.6697035612136081 N
