System
1.0
3.790505900617897 -6.565349045441654 0.0
3.7905058009954145 6.565349102958719 -0.0
-0.0 -0.0 5.418131992947497
Sr Ga N 
6 2 6 
direct
0.2844914041414274 0.3574512017019127 0.25 Sr
0.3574512017018397 0.07296079756044775 0.7500000000000001 Sr
0.9270392024395905 0.2844914041414625 0.7500000000000001 Sr
0.0729607975604096 0.7155085958585378 0.25 Sr
0.6425487982981606 0.9270392024395522 0.25 Sr
0.7155085958585726 0.6425487982980872 0.7500000000000001 Sr
0.3333330000000032 0.6666669999999968 0.7500000000000001 Ga
0.6666669999999968 0.3333330000000032 0.25 Ga
0.4001415786065421 0.09299162401766838 0.25 N
0.09299162401766024 0.6928500454111922 0.7500000000000001 N
0.3071499545888817 0.40014157860647603 0.7500000000000001 N
0.6928500454111183 0.599858421393524 0.25 N
0.9070083759823397 0.3071499545888077 0.25 N
0.599858421393458 0.9070083759823316 0.7500000000000001 N
