System
1.0
-0.0 5.316756884634225 5.316756884634225
5.316756884634225 -0.0 5.316756884634225
5.316756884634225 5.316756884634225 0.0
Dy Sb O 
4 4 14 
direct
0.5 -6.60660257148435e-18 0.5 Dy
0.5 0.5 1.32132051429687e-17 Dy
-6.60660257148435e-18 0.5 0.5 Dy
0.5 0.5 0.5 Dy
0.0 0.0 0.0 Sb
0.5 -6.60660257148435e-18 6.60660257148435e-18 Sb
-6.60660257148435e-18 0.5 6.60660257148435e-18 Sb
-6.60660257148435e-18 6.60660257148435e-18 0.5 Sb
0.9051185051741409 0.3448814948258591 0.905118505174141 O
0.625 0.625 0.625 O
0.905118505174141 0.905118505174141 0.344881494825859 O
0.3448814948258591 0.3448814948258591 0.9051185051741412 O
0.3448814948258592 0.9051185051741409 0.34488149482585895 O
0.655118505174141 0.09488149482585903 0.655118505174141 O
0.09488149482585898 0.655118505174141 0.09488149482585903 O
0.09488149482585898 0.09488149482585902 0.6551185051741412 O
0.655118505174141 0.655118505174141 0.09488149482585909 O
0.09488149482585903 0.655118505174141 0.655118505174141 O
0.9051185051741409 0.3448814948258591 0.34488149482585917 O
0.655118505174141 0.09488149482585898 0.09488149482585898 O
0.375 0.375 0.375 O
0.34488149482585917 0.905118505174141 0.9051185051741409 O
