System
1.0
3.5570422091365534 -0.0016586063865422 -0.001352531770751
-1.775921958585073 5.6670336491896185 -0.0096546477095818
-1.7774994044536614 -1.778299946230535 6.179733994744957
Zn Ni N 
4 2 4 
direct
0.14914018744911567 0.8040376203899827 0.4921266851182692 Zn
0.852773011387044 0.19399667713708182 0.5093184712929781 Zn
0.2990470509813086 0.39356660006022604 0.20257063176970821 Zn
0.7027718461926874 0.6044865106807974 0.7988797013438769 Zn
0.49443093985615494 0.874129549939664 0.1126874557202968 Ni
0.5073967089873274 0.1239251582985329 0.8887668071652377 Ni
0.5548644530388864 0.7508556004751427 0.35678452679399003 N
0.4470742166971024 0.24721459101342114 0.6446709826868025 N
0.2949136799509217 0.7723741310897375 0.8152562693670602 N
0.706900905459445 0.2256745609154113 0.18619846874178284 N
