System
1.0
4.662849316808145 0.0 -0.0
-0.0 4.662849316808145 -0.0
0.0 0.0 9.15777789638475
Ce Bi N 
4 2 2 
direct
0.75 0.25 0.0 Ce
0.25 0.75 0.0 Ce
0.75 0.75 0.6693300401668751 Ce
0.25 0.25 0.3306699598331277 Ce
0.75 0.75 0.3020828772876395 Bi
0.25 0.25 0.6979171227123511 Bi
0.75 0.75 0.9107921696008647 N
0.25 0.25 0.0892078303991315 N
