System
1.0
5.653605164595557 -3.4012145e-09 -0.0
-2.8268020861240655 5.755638312601122 0.0
-0.0 -0.0 7.643797343011591
Ba Si N 
4 4 8 
direct
0.8350376453998659 0.6700762907995937 0.5653809947604286 Ba
0.1649623546001344 0.3299237092004063 0.4346190052395713 Ba
0.6649623546001342 0.3299237092004063 0.0653809947604287 Ba
0.3350376453998659 0.6700762907995937 0.9346190052395714 Ba
0.04942260760412591 0.0988452152082341 0.8592079648095153 Si
0.45057739239587397 0.9011547847917659 0.35920796480951483 Si
0.9505773923958739 0.9011547847917659 0.14079203519048497 Si
0.5494226076041261 0.0988452152082341 0.6407920351904847 Si
0.3476522605717667 0.1953045211436936 0.75 N
0.15234773942823315 0.8046954788563062 0.25 N
0.6523477394282333 0.8046954788563062 0.25 N
0.8476522605717667 0.1953045211436936 0.75 N
0.8991295611095204 0.7982581222187244 0.9194407933313702 N
0.39912956110952064 0.7982581222187244 0.5805592066686298 N
0.6008704388904798 0.2017418777812758 0.4194407933313705 N
0.10087043889047952 0.2017418777812758 0.08055920666862969 N
