System
1.0
0.0 0.0 -6.6055554555428495
-1.8505865541276725 -3.2053097776981043 -0.0
-1.8505865541276725 3.2053097776981043 0.0
C N 
6 2 
direct
0.7499999999999999 0.2335214244815602 -1.7617129025282208e-17 C
0.7499999999999999 0.7664785755184399 0.7664785755184397 C
0.7499999999999999 3.091373244601954e-17 0.2335214244815602 C
0.24999999999999997 0.7664785755184398 -3.8863543673638124e-17 C
0.24999999999999997 0.23352142448156032 0.2335214244815603 C
0.24999999999999997 1.403486970097362e-16 0.7664785755184397 C
0.49999999999999994 0.0 0.0 N
0.0 0.0 0.0 N
