System
1.0
4.381752083803833 0.0898291290011263 -0.311854703669456
-0.1500629841553311 4.283119250361175 -0.0682280689662308
-0.2580156422264894 0.0950764547716632 10.935248586377183
H C S N 
4 4 4 4 
direct
0.2276597786193415 0.4345009689297927 0.660697587727426 H
0.22766603565102467 0.4344893278935987 0.1606981374989821 H
0.8839120114795701 0.9329286211207877 0.8528174441460113 H
0.8839183024538756 0.9329170456948818 0.35281857087718177 H
0.9664610662934977 0.3816591677476541 0.8031375382030624 C
0.9664663929285647 0.3816497765762673 0.3031383971232155 C
0.14498995431281503 0.8825962694272934 0.21033721444081813 C
0.1449841354209188 0.8826055754726011 0.7103369230207296 C
0.3566753475820776 0.004769395929932099 0.1002618488856318 S
0.35667309798306573 0.0047804210244051975 0.6002615543955615 S
0.7542150224327441 0.5017354001137385 0.9129824942133249 S
0.754220772789704 0.5017238348200931 0.41298231850243594 S
0.10960901630524449 0.5622833563805302 0.7227506350307266 N
0.10961554537281712 0.5622739881486681 0.22275148494942973 N
0.0020775790443253992 0.06191062795243809 0.7907995290837415 N
0.0020839413304102987 0.0619012227673206 0.2908003219017116 N
