System
1.0
-7.1190998630636235 3.5793251690248713 4.915135132456864
7.1190998630636235 -3.5793251690248713 4.915135132456864
7.1190998630636235 3.5793251690248713 -4.915135132456864
H C N Cl 
32 8 4 4 
direct
0.9277742613460201 0.8587900356706227 0.7865642970166428 H
0.1122750783060243 0.40209072652113254 0.7698701120237095 H
0.6322206144974233 0.3424049662823083 0.23012988797629114 H
0.8677793855025767 0.09790927347886733 0.7101843517848921 H
0.38772492169397577 0.1575950337176918 0.2898156482151085 H
0.8877249216939762 0.5979092734788671 0.2301298879762912 H
0.36777938550257666 0.6575950337176917 0.7698701120237095 H
0.1322206144974238 0.9020907265211329 0.2898156482151084 H
0.6122750783060238 0.8424049662823082 0.710184351784892 H
0.8195132889567153 0.25814395756765973 0.33288207410163795 H
0.6804867110432847 0.013368785144922592 0.4386306686109371 H
0.5747381165339853 0.24185604243234068 0.5613693313890633 H
0.07473811653398543 0.5133687851449225 0.33288207410163795 H
0.1804867110432851 0.7418560424323404 0.6671179258983628 H
0.3195132889567153 0.9866312148550775 0.5613693313890632 H
0.4252618834660145 0.7581439575676595 0.4386306686109371 H
0.9252618834660147 0.4866312148550773 0.667117925898363 H
0.5164727565301506 0.14456061961768374 0.09167968654142339 H
0.05288092307625961 0.4247930599887269 0.908320313458577 H
0.07222573865397929 0.1412099643293775 0.2134357029833565 H
0.42777426134602087 0.6412099643293773 0.06898422567540502 H
0.5722257386539797 0.3587900356706229 0.9310157743245946 H
0.7530682602202298 0.77989589757142 0.5329641677916498 H
0.24693173977977087 0.22010410242857986 0.4670358322083495 H
0.7469317397797702 0.2798958975714202 0.026827637351190807 H
0.2530682602202291 0.72010410242858 0.9731723626488091 H
0.016472756530150977 0.9247930599887264 0.37191213691246666 H
0.4835272434698488 0.8554393803823164 0.9083203134585769 H
0.9471190769237403 0.5752069400112735 0.09167968654142339 H
0.4471190769237408 0.3554393803823164 0.3719121369124668 H
0.9835272434698494 0.07520694001127316 0.6280878630875317 H
0.5528809230762597 0.6445606196176834 0.6280878630875317 H
0.832259350828874 0.022066335498026488 0.6002493244595485 C
0.0781829889615294 0.4779336645019737 0.8101930153308547 C
0.6677406491711259 0.2679899736306749 0.18980698466914595 C
0.4218170110384705 0.23201002636932475 0.399750675540451 C
0.5781829889615289 0.7679899736306758 0.6002493244595485 C
0.3322593508288735 0.7320100263693241 0.8101930153308546 C
0.16774064917112647 0.9779336645019736 0.399750675540451 C
0.9218170110384711 0.5220663354980265 0.18980698466914606 C
0.7806522120774967 0.8527725174944646 0.6334247195719616 N
0.21934778792250242 0.1472274825055353 0.3665752804280383 N
0.2806522120774978 0.6472274825055354 0.9278796945830334 N
0.7193477879225033 0.3527725174944641 0.07212030541696716 N
0.7122927679749047 0.6374710307375673 0.34976379871247176 Cl
0.21229276797490512 0.8625289692624326 0.0748217272373442 Cl
0.7877072320250953 0.1374710307375669 0.9251782727626556 Cl
0.28770723202509524 0.3625289692624328 0.6502362012875283 Cl
