System
1.0
6.311877854043325 -0.9164259304984523 -3.4099228955560354
-3.8702483527996745 6.100743605586002 -0.3306358221034033
-0.5813716148557827 0.9164269582075976 7.150481612377188
K N 
2 6 
direct
-5.283785906686268e-17 0.5 0.5 K
0.0 0.0 0.0 K
0.49999999999953426 0.9420558591509459 0.5579441408485171 N
0.5000000000004655 0.057944140849053874 0.4420558591514831 N
0.3841117183032077 0.4420558591514283 0.9420558591518939 N
-1.4982611745047198e-16 0.7499999999999998 0.7500000000000001 N
-2.641892953343134e-17 0.25 0.25 N
0.6158882816967921 0.5579441408485715 0.05794414084810612 N
