System
1.0
4.8472616517485365 -0.0029160949806292 2.75174427587032
1.600736618120763 4.575325374477239 2.751744274224517
-0.0041119341456758 -0.0029160961930031 5.57386944912604
La Os N 
2 2 6 
direct
0.7499999999999999 0.7499999999999999 0.7500000000000001 La
0.24999999999999997 0.25 0.24999999999999994 La
0.49999999999999994 0.5 0.4999999999999999 Os
0.0 0.0 0.0 Os
0.29638820253591247 0.2036117974638305 0.7500000000000621 N
0.7500000000001309 0.2963882025363624 0.20361179746406616 N
0.7036117974640872 0.7963882025361694 0.24999999999993772 N
0.20361179746395677 0.749999999999807 0.2963882025358716 N
0.7963882025360431 0.250000000000193 0.7036117974641283 N
0.24999999999986927 0.7036117974636378 0.7963882025359336 N
