System
1.0
5.0421593878202176 -0.061489828784542 -1.682404501857731
-1.114557954533876 4.783567549727545 -1.4721394246126422
0.0532909561191099 0.0585838540407231 6.510956317251395
B H N F 
2 6 2 8 
direct
0.6416381313273508 0.7469265838367248 0.32058566539356753 B
0.3583618686726497 0.25307341616327567 0.6794143346064322 B
0.8680477086529698 0.7045561406004672 0.8758559767855505 H
0.13195229134703043 0.2954438593995326 0.1241440232144493 H
0.17258487862865707 0.8750476528261864 0.8866353468611158 H
0.8274151213713432 0.12495234717381361 0.11336465313888447 H
0.1393491465309184 0.8424478497346322 0.1323564548742013 H
0.860650853469082 0.1575521502653685 0.8676435451257983 H
0.9596622205456782 0.13126559826544854 0.023170305261946418 N
0.04033777945432229 0.8687344017345515 0.9768296947380539 N
0.7790656433758306 0.8628076364337557 0.5579033342087618 F
0.2209343566241695 0.1371923635662444 0.4420966657912386 F
0.6170443722737537 0.9634202066068422 0.2216015967509233 F
0.3829556277262467 0.03657979339315771 0.7783984032490774 F
0.3701240193244261 0.6019734140746333 0.2730312063661046 F
0.6298759806755756 0.3980265859253674 0.7269687936338963 F
0.7787492591830845 0.5651632126443321 0.21784129688026702 F
0.2212507408169155 0.43483678735566816 0.7821587031197322 F
