System
1.0
-5.279041992498377 4.4170691923e-06 0.0047925622250129
2.639506774787243 5.479069947283484 -0.0928064942268494
-0.0063262406242796 -2.614853453826318 -6.847494930502803
Y Ge O 
4 2 10 
direct
0.3620299853122111 0.6593750297739321 0.1688181105000501 Y
0.29298418360671863 0.6593895788913106 0.6688193134631489 Y
0.7015710528715978 0.3384406786266005 0.32766473104150895 Y
0.6325247046892153 0.3384569028614906 0.8276683136149114 Y
0.9972718791149916 0.9989175308817756 0.4982391439101966 Ge
0.9972862432443479 -0.0010790089341702574 0.9982410155000764 Ge
0.1088180104226548 0.7410782083191132 -0.0243089792651705 O
0.627882133362797 0.7410747366995198 0.4756693570384521 O
0.09276737136893175 0.7050384644458693 0.3939046022683633 O
0.3866861887482509 0.2928073869677644 0.102578144189401 O
0.6078940311884143 0.705030000656247 0.893898120569941 O
0.9017663999664242 0.29280140163847634 0.6025722481996169 O
0.36665520748476804 0.2567779479817318 0.5208082823046516 O
0.853542096382819 -0.001072462107753604 0.2482365067324226 O
0.8857766440017262 0.2567800100621834 0.020793158072701 O
0.14101386823412657 -0.0010864067640927774 0.7482409318597427 O
