System
1.0
4.035706125533547 0.0 -0.0
0.0 4.035706125533547 -0.0
0.0 0.0 4.035706125533547
Al Sn O 
1 1 3 
direct
0.0 0.0 0.0 Al
0.5 0.5 0.5 Sn
0.0 0.5 0.5 O
0.5 0.0 0.5 O
0.5 0.5 0.0 O
