System
1.0
3.946167674655191 -9.449325e-10 -2.1631191548120547
-1.1857284988251724 3.7638128268609057 -2.1631191522013005
0.0010031316412674 0.0013677450301564 4.682876888954944
B As O 
1 1 4 
direct
0.24999999999999994 0.7499999999999999 0.5 B
0.0 0.0 0.0 As
0.1451371339761367 0.7027692206097572 0.7334391154278682 O
0.2972307793916834 0.4116970185512964 0.2665608845726071 O
0.5883029814518173 0.030669894818195098 0.7334391154280319 O
0.96933010518036 0.8548628660207537 0.26656088457149263 O
