System
1.0
-4.2701565822287995 2.3063427695294316 4.734390908577463
4.443693288819267 -2.397212131942068 5.434027637797754
4.213272622124275 2.493427212180368 -6.444171065719367
Al H O 
4 12 12 
direct
0.4534836984845652 0.8364962531284716 0.28892105910505217 Al
0.5088050328211433 0.16579583379635496 0.6810565762009396 Al
0.9722059425457238 0.6715307186235544 0.6389157002456506 Al
0.9900850882917483 0.3307530524187611 0.33105971759568253 Al
0.7912965845739793 0.5993636767056726 0.8121101348816152 H
0.1709854542628405 0.40292627680967025 0.15785488569057124 H
0.6582053785733685 0.9096632308702809 0.1518179948729452 H
0.6160229277838171 0.8307471225108642 0.674302053384733 H
0.3462038160174395 0.1715150427981306 0.29563348200288686 H
0.30410311655237937 0.09261373698879638 0.818158871583731 H
0.15365963200963084 0.7157427057880733 0.45993878833905266 H
0.380158074654204 0.46640783663450286 0.060221959894018004 H
0.5821314246990188 0.5358850458316449 0.9097661963674469 H
0.911464033571015 0.9451727737754977 0.1115351177552845 H
0.05082566132385418 0.05712409146535247 0.8584389699492735 H
0.8085703322783868 0.28654356326069375 0.5099821417929931 H
0.5079413551167562 0.19021627800891 0.9155547567769532 O
0.4543507846824422 0.8120731989402566 0.05442062681167473 O
0.4342711747840616 0.8684537011213919 0.5240272868479199 O
0.5280097779107413 0.13384897596703513 0.44595175500192324 O
0.9380742934570194 0.38972778399548647 0.5404073563504453 O
0.5010599436694111 0.43913738234410615 0.7272191052697984 O
0.46122118370840953 0.5631545620935827 0.24276319990771086 O
0.002991497928862971 0.05909008184402548 0.2947260735938216 O
0.9592929269750353 0.9431978402047345 0.675248767771681 O
0.010712906390094874 0.28430865394877697 0.08847448152346911 O
0.024198323648680846 0.6125589862987455 0.4295492898444917 O
0.9515796332853724 0.7179755938266498 0.8815016506382449 O
