System
1.0
3.571814664e-06 5.003872117441566 5.003869433604251
5.003871250830182 2.5619386244e-06 5.0038704444008335
5.003870394152058 5.003872270398585 2.4200898975e-06
Dy Ge O 
4 4 14 
direct
4.972353778259995e-07 0.9999997200250602 4.189587925638193e-08 Dy
0.49999990168764696 0.9999996347599309 3.758909460695273e-07 Dy
-2.3482101289743596e-07 0.5000002488841732 1.4489148496191873e-07 Dy
5.9552149442833994e-08 0.9999995229350914 0.500000091848083 Dy
0.5000000145431219 2.0505319304936668e-07 0.49999960027273216 Ge
0.4999998281003542 0.5000001127227913 -7.139050936033778e-07 Ge
-5.678848538663641e-07 0.5000002578588395 0.500000728359001 Ge
0.5000006277121429 0.4999996241713553 0.4999997637970229 Ge
0.8282211971748936 0.421778835142884 0.8282218792346635 O
0.8282215271823361 0.828221228070675 0.4217779366759484 O
0.42177768189694487 0.42177799535169597 0.8282211492636812 O
0.4217791955422629 0.828220129191945 0.4217770859463621 O
0.1717789052345639 0.57822227826391 0.5782229456966589 O
0.8282206914505125 0.4217772245013863 0.4217789755546275 O
0.5782221934897687 0.171779725940161 0.5782213074016844 O
0.1717790007854217 0.5782228651267786 0.17177824277260095 O
0.17177841038185424 0.17177918676344137 0.5782216763098783 O
0.42177782453436047 0.8282205573700108 0.828222285042404 O
0.5782210014505207 0.1717795676270902 0.1717775466599744 O
0.12500222286241897 0.1250027409483659 0.12500035533463033 O
0.5782223379001684 0.578221415306526 0.1717791073987126 O
0.874997683989032 0.8749979239847064 0.8749994736581318 O
