System
1.0
3.4076318168237303 0.0 -0.0
0.0 3.4076318168237303 -0.0
0.0 0.0 3.4076318168237303
B Os O 
1 1 3 
direct
0.5 0.5 0.5 B
0.0 0.0 0.0 Os
0.5 0.5 0.0 O
0.5 0.0 0.5 O
0.0 0.5 0.5 O
