System
1.0
3.7250933572146856 2.0985889188533284 -5.905678623976561
-0.0077963668857638 4.275551944113599 5.9056786226288
3.5658367733746856 -2.079539697129064 5.89357000944901
Li Sb W O 
2 2 2 12 
direct
0.12500000000000003 0.37499999999999994 0.375 Li
0.6250000000000001 0.875 0.3750000000000001 Li
0.12500000000000003 0.8749999999999999 0.375 Sb
0.12500000000000008 0.8749999999999999 0.875 Sb
0.12500000000000006 0.37499999999999983 0.875 W
0.625 0.8749999999999998 0.8750000000000001 W
0.44707915130962167 0.9415700477222725 0.9454984564192638 O
0.42807565723543145 0.5719243427595637 0.9280929108018706 O
0.19157004772103084 0.197079151307481 0.8045015435815182 O
0.8029159073060327 0.8084643166653052 0.1899949559869383 O
0.44708409269396676 0.9415356833346948 0.5600050440130617 O
0.03950971454626391 0.9604902854541619 0.539514684855507 O
0.05846431667125205 0.5529159073128684 0.5600050440122883 O
0.8029208486903786 0.8084299522777274 0.8045015435807364 O
0.21049028545373621 0.7895097145458378 0.2104853151444927 O
0.19153568332874807 0.19708409268713148 0.1899949559877117 O
0.05842995227896908 0.5529208486925188 0.9454984564184818 O
0.8219243427645686 0.17807565724043606 0.8219070891981295 O
