System
1.0
5.0672999733224335 -0.0138863630785815 -1.3880299200527908
-1.7119645976461249 4.769370504313475 -1.3880299180272548
0.0014019172801061 0.0019862512090176 6.934570806075851
Na Al P O F 
2 2 2 8 2 
direct
0.3320497162626709 0.6679512837372413 0.7499999999999156 Na
0.6679512837373273 0.33204971626275603 0.2500000000000844 Na
2.797576937704982e-20 2.4488909502200593e-20 0.49999999999999994 Al
0.0 0.0 0.0 Al
0.6828066252671345 0.3171933747327735 0.7499999999999336 P
0.31719337473286563 0.6828066252672265 0.2500000000000665 P
0.30482718964548733 0.885769132186192 0.12230415301383324 O
0.11423086781380555 0.6951728103542718 0.3776958469861835 O
0.23858076246140475 0.3789234476920653 0.09693276023420881 O
0.6210765523083817 0.7614192375388016 0.40306723976611014 O
0.761419237538595 0.6210765523079349 0.9030672397657913 O
0.3789234476916182 0.2385807624611984 0.5969327602338896 O
0.6951728103545127 0.11423086781380819 0.8776958469861665 O
0.8857691321861941 0.3048271896457277 0.6223041530138167 O
0.9294582164100105 0.0705417835897417 0.24999999999986222 F
0.07054178358999003 0.9294582164102585 0.7500000000001379 F
