System
1.0
-1.8791654321126336 1.8791654321126336 5.815987384778748
1.8791654321126336 -1.8791654321126336 5.815987384778748
1.8791654321126336 1.8791654321126336 -5.815987384778748
Sb S O 
2 1 2 
direct
0.35725321406971006 0.35725321406971006 -4.6725374017259234e-34 Sb
0.6427459820021233 0.6427459820021234 8.433219182877551e-34 Sb
0.0 0.0 0.0 S
0.2499997990179565 0.7500005355208401 0.5000007365028836 O
0.7500005355208401 0.2499997990179565 0.5000007365028836 O
