System
1.0
0.0 4.837903959265875 -0.0002363092999121
3.3771472697420997 0.0 0.0
0.0 -0.0006866654796228 -11.496708917455438
Mg V O 
2 4 10 
direct
0.1791706789756922 0.5 0.250020565345183 Mg
0.8208300821612369 0.0 0.7500174977223787 Mg
0.613638589213225 0.0 0.0987384705711609 V
0.38635350392340256 0.5 0.9012581166479702 V
0.38635508598481105 0.5 0.5987362342725819 V
0.6136509743103697 0.0 0.4012607078159111 V
0.5632251710468553 0.5 0.7499993988311452 O
0.43677533852545297 0.0 0.2500004361634314 O
0.4338008166943163 0.5 0.0750121803123938 O
0.566206139230208 0.0 0.9249794447844598 O
0.43379795248495284 0.5 0.42497967196400604 O
0.5661963971717617 0.0 0.575011813127682 O
0.9491641622841713 0.0 0.365500037019056 O
0.0508476049141187 0.5 0.6344930655686845 O
0.050842278044292 0.5 0.8654933717760572 O
0.9491492250351388 0.0 0.1344999880778963 O
